&BANDS
prefix = 'rbbr'
outdir = '.'
filband = 'seg3.dat'
spin_component=1
/

