&BANDS
prefix = 'rbbr'
outdir = '.'
filband = 'seg2.dat'
spin_component=1
/

