 &control
    calculation     = 'bands'
    prefix          = 'rbbr'
    pseudo_dir      = '/scratch1/fanchem/RbBr/pp'
    outdir          = './'
    wf_collect      = .true.
  etot_conv_thr=1.0D-7
  forc_conv_thr=1.0D-5
  tprnfor = .true.
  tstress = .true.
  verbosity = 'high'
/
 &system
    ibrav           = 2
    celldm(1)       = 13.25595792830467838
    nat             = 2
    ntyp            = 2
    ecutwfc         = 66
    occupations     = 'fixed'
    nbnd = 24
 /
 &electrons
    diagonalization = 'david'
    mixing_beta     = 0.7
    conv_thr        = 1.0d-10
 /
&IONS
/
&CELL
press_conv_thr=0.1
/

ATOMIC_SPECIES
  Rb   85.4678  Rb.pbe-spn-kjpaw_psl.1.0.0.UPF
  Br   79.9040  Br.pbe-n-kjpaw_psl.1.0.0.UPF
ATOMIC_POSITIONS {crystal}
  Rb   0.00  0.00  0.00
  Br   0.50  0.50  0.50
K_POINTS tpiba_b
101
   0.0000000000000000        0.0000000000000000        0.0000000000000000  1  
   9.9999999999999985E-003   9.9999999999999985E-003   0.0000000000000000  1 
   1.9999999999999997E-002   1.9999999999999997E-002   0.0000000000000000  1 
   2.9999999999999999E-002   2.9999999999999999E-002   0.0000000000000000  1 
   3.9999999999999994E-002   3.9999999999999994E-002   0.0000000000000000  1 
   4.9999999999999996E-002   4.9999999999999996E-002   0.0000000000000000  1 
   5.9999999999999998E-002   5.9999999999999998E-002   0.0000000000000000  1 
   6.9999999999999993E-002   6.9999999999999993E-002   0.0000000000000000  1 
   7.9999999999999988E-002   7.9999999999999988E-002   0.0000000000000000  1 
   8.9999999999999997E-002   8.9999999999999997E-002   0.0000000000000000  1 
   9.9999999999999992E-002   9.9999999999999992E-002   0.0000000000000000  1 
  0.11000000000000000       0.11000000000000000        0.0000000000000000  1 
  0.12000000000000000       0.12000000000000000        0.0000000000000000  1 
  0.13000000000000000       0.13000000000000000        0.0000000000000000  1 
  0.13999999999999999       0.13999999999999999        0.0000000000000000  1 
  0.14999999999999999       0.14999999999999999        0.0000000000000000  1 
  0.15999999999999998       0.15999999999999998        0.0000000000000000  1 
  0.16999999999999998       0.16999999999999998        0.0000000000000000  1 
  0.17999999999999999       0.17999999999999999        0.0000000000000000  1 
  0.18999999999999997       0.18999999999999997        0.0000000000000000  1 
  0.19999999999999998       0.19999999999999998        0.0000000000000000  1 
  0.20999999999999999       0.20999999999999999        0.0000000000000000  1 
  0.22000000000000000       0.22000000000000000        0.0000000000000000  1 
  0.22999999999999998       0.22999999999999998        0.0000000000000000  1 
  0.23999999999999999       0.23999999999999999        0.0000000000000000  1 
  0.25000000000000000       0.25000000000000000        0.0000000000000000  1 
  0.26000000000000001       0.26000000000000001        0.0000000000000000  1 
  0.26999999999999996       0.26999999999999996        0.0000000000000000  1 
  0.27999999999999997       0.27999999999999997        0.0000000000000000  1 
  0.28999999999999998       0.28999999999999998        0.0000000000000000  1 
  0.29999999999999999       0.29999999999999999        0.0000000000000000  1 
  0.31000000000000000       0.31000000000000000        0.0000000000000000  1 
  0.31999999999999995       0.31999999999999995        0.0000000000000000  1 
  0.32999999999999996       0.32999999999999996        0.0000000000000000  1 
  0.33999999999999997       0.33999999999999997        0.0000000000000000  1 
  0.34999999999999998       0.34999999999999998        0.0000000000000000  1 
  0.35999999999999999       0.35999999999999999        0.0000000000000000  1 
  0.37000000000000000       0.37000000000000000        0.0000000000000000  1 
  0.37999999999999995       0.37999999999999995        0.0000000000000000  1 
  0.38999999999999996       0.38999999999999996        0.0000000000000000  1 
  0.39999999999999997       0.39999999999999997        0.0000000000000000  1 
  0.40999999999999998       0.40999999999999998        0.0000000000000000  1 
  0.41999999999999998       0.41999999999999998        0.0000000000000000  1 
  0.42999999999999999       0.42999999999999999        0.0000000000000000  1 
  0.44000000000000000       0.44000000000000000        0.0000000000000000  1 
  0.44999999999999996       0.44999999999999996        0.0000000000000000  1 
  0.45999999999999996       0.45999999999999996        0.0000000000000000  1 
  0.46999999999999992       0.46999999999999992        0.0000000000000000  1 
  0.47999999999999998       0.47999999999999998        0.0000000000000000  1 
  0.48999999999999994       0.48999999999999994        0.0000000000000000  1 
  0.50000000000000000       0.50000000000000000        0.0000000000000000  1 
  0.51000000000000001       0.51000000000000001        0.0000000000000000  1 
  0.52000000000000002       0.52000000000000002        0.0000000000000000  1 
  0.52999999999999992       0.52999999999999992        0.0000000000000000  1 
  0.53999999999999992       0.53999999999999992        0.0000000000000000  1 
  0.54999999999999993       0.54999999999999993        0.0000000000000000  1 
  0.55999999999999994       0.55999999999999994        0.0000000000000000  1 
  0.56999999999999995       0.56999999999999995        0.0000000000000000  1 
  0.57999999999999996       0.57999999999999996        0.0000000000000000  1 
  0.58999999999999997       0.58999999999999997        0.0000000000000000  1 
  0.59999999999999998       0.59999999999999998        0.0000000000000000  1 
  0.60999999999999999       0.60999999999999999        0.0000000000000000  1 
  0.62000000000000000       0.62000000000000000        0.0000000000000000  1 
  0.63000000000000000       0.63000000000000000        0.0000000000000000  1 
  0.63999999999999990       0.63999999999999990        0.0000000000000000  1 
  0.64999999999999991       0.64999999999999991        0.0000000000000000  1 
  0.65999999999999992       0.65999999999999992        0.0000000000000000  1 
  0.66999999999999993       0.66999999999999993        0.0000000000000000  1 
  0.67999999999999994       0.67999999999999994        0.0000000000000000  1 
  0.68999999999999995       0.68999999999999995        0.0000000000000000  1 
  0.69999999999999996       0.69999999999999996        0.0000000000000000  1 
  0.70999999999999996       0.70999999999999996        0.0000000000000000  1 
  0.71999999999999997       0.71999999999999997        0.0000000000000000  1 
  0.72999999999999998       0.72999999999999998        0.0000000000000000  1 
  0.73999999999999999       0.73999999999999999        0.0000000000000000  1 
  0.75000000000000000       0.75000000000000000        0.0000000000000000  1 
  0.75999999999999990       0.75999999999999990        0.0000000000000000  1 
  0.76999999999999991       0.76999999999999991        0.0000000000000000  1 
  0.77999999999999992       0.77999999999999992        0.0000000000000000  1 
  0.78999999999999992       0.78999999999999992        0.0000000000000000  1 
  0.79999999999999993       0.79999999999999993        0.0000000000000000  1 
  0.80999999999999994       0.80999999999999994        0.0000000000000000  1 
  0.81999999999999995       0.81999999999999995        0.0000000000000000  1 
  0.82999999999999996       0.82999999999999996        0.0000000000000000  1 
  0.83999999999999997       0.83999999999999997        0.0000000000000000  1 
  0.84999999999999998       0.84999999999999998        0.0000000000000000  1 
  0.85999999999999999       0.85999999999999999        0.0000000000000000  1 
  0.86999999999999988       0.86999999999999988        0.0000000000000000  1 
  0.88000000000000000       0.88000000000000000        0.0000000000000000  1 
  0.88999999999999990       0.88999999999999990        0.0000000000000000  1 
  0.89999999999999991       0.89999999999999991        0.0000000000000000  1 
  0.90999999999999992       0.90999999999999992        0.0000000000000000  1 
  0.91999999999999993       0.91999999999999993        0.0000000000000000  1 
  0.93000000000000005       0.93000000000000005        0.0000000000000000  1 
  0.93999999999999984       0.93999999999999984        0.0000000000000000  1 
  0.94999999999999996       0.94999999999999996        0.0000000000000000  1 
  0.95999999999999996       0.95999999999999996        0.0000000000000000  1 
  0.96999999999999986       0.96999999999999986        0.0000000000000000  1 
  0.97999999999999987       0.97999999999999987        0.0000000000000000  1 
  0.98999999999999999       0.98999999999999999        0.0000000000000000  1 
   1.0000000000000000        1.0000000000000000        0.0000000000000000  1 
