 &control
    calculation     = 'scf'
    prefix          = 'rbbr'
    pseudo_dir      = '/scratch1/fanchem/RbBr/pp'
    outdir          = './'
    wf_collect      = .true.
  etot_conv_thr=1.0D-7
  forc_conv_thr=1.0D-5
  tprnfor = .true.
  tstress = .true.
  verbosity = 'high'
/
 &system
    ibrav           = 2
    celldm(1)       = 13.25595792830467838
    nat             = 2
    ntyp            = 2
    ecutwfc         = 66
    occupations     = 'fixed'
 /
 &electrons
    diagonalization = 'david'
    mixing_beta     = 0.7
    conv_thr        = 1.0d-10
 /
&IONS
/
&CELL
press_conv_thr=0.1
/

ATOMIC_SPECIES
  Rb   85.4678  Rb.pbe-spn-kjpaw_psl.1.0.0.UPF
  Br   79.9040  Br.pbe-n-kjpaw_psl.1.0.0.UPF
ATOMIC_POSITIONS {crystal}
  Rb   0.00  0.00  0.00
  Br   0.50  0.50  0.50
K_POINTS {automatic}
 6 6 6 0 0 0
