KPT-Resolved Value to Generate K-Mesh: 0.030
0
Gamma
  14  14  14
0.0  0.0  0.0
