 &control
    calculation     = 'scf'
    prefix          = 'AlN'
    restart_mode    = 'from_scratch'
    wf_collect      = .false.
    pseudo_dir      = '~/zxy/pp/'
    outdir          = './tmp'
    tprnfor         = .true.
    tstress         = .true.
/
 &system
    ibrav           = 0
    nat             = 300
    ntyp            = 2
    ecutwfc         = 120
    ecutrho         = 600
    occupations     = 'fixed'
 /
 &electrons
    diagonalization = 'david'
    mixing_beta     = 0.7
    conv_thr        = 1.0d-12
 /
ATOMIC_SPECIES
  Al   26.98100  Al.pbesol-n-kjpaw_psl.1.0.0.UPF
   N   14.00650   N.pbesol-n-kjpaw_psl.1.0.0.UPF
ATOMIC_POSITIONS crystal
Al   0.0674078457693009    0.134815691558602    0.333196566366667
Al        0.13333333334        0.06666666666         0.1665298997
N        0.06666666666        0.13333333334         0.1271753748
N        0.13333333334        0.06666666666    0.293842041466667
Al        0.26666666666        0.13333333334    0.333196566366667
Al        0.33333333334        0.06666666666         0.1665298997
N        0.26666666666        0.13333333334         0.1271753748
N        0.33333333334        0.06666666666    0.293842041466667
Al        0.46666666666        0.13333333334    0.333196566366667
Al        0.53333333334        0.06666666666         0.1665298997
N        0.46666666666        0.13333333334         0.1271753748
N        0.53333333334        0.06666666666    0.293842041466667
Al        0.66666666666        0.13333333334    0.333196566366667
Al        0.73333333334        0.06666666666         0.1665298997
N        0.66666666666        0.13333333334         0.1271753748
N        0.73333333334        0.06666666666    0.293842041466667
Al        0.86666666666        0.13333333334    0.333196566366667
Al        0.93333333334        0.06666666666         0.1665298997
N        0.86666666666        0.13333333334         0.1271753748
N        0.93333333334        0.06666666666    0.293842041466667
Al        0.06666666666        0.33333333334    0.333196566366667
Al        0.13333333334        0.26666666666         0.1665298997
N        0.06666666666        0.33333333334         0.1271753748
N        0.13333333334        0.26666666666    0.293842041466667
Al        0.26666666666        0.33333333334    0.333196566366667
Al        0.33333333334        0.26666666666         0.1665298997
N        0.26666666666        0.33333333334         0.1271753748
N        0.33333333334        0.26666666666    0.293842041466667
Al        0.46666666666        0.33333333334    0.333196566366667
Al        0.53333333334        0.26666666666         0.1665298997
N        0.46666666666        0.33333333334         0.1271753748
N        0.53333333334        0.26666666666    0.293842041466667
Al        0.66666666666        0.33333333334    0.333196566366667
Al        0.73333333334        0.26666666666         0.1665298997
N        0.66666666666        0.33333333334         0.1271753748
N        0.73333333334        0.26666666666    0.293842041466667
Al        0.86666666666        0.33333333334    0.333196566366667
Al        0.93333333334        0.26666666666         0.1665298997
N        0.86666666666        0.33333333334         0.1271753748
N        0.93333333334        0.26666666666    0.293842041466667
Al        0.06666666666        0.53333333334    0.333196566366667
Al        0.13333333334        0.46666666666         0.1665298997
N        0.06666666666        0.53333333334         0.1271753748
N        0.13333333334        0.46666666666    0.293842041466667
Al        0.26666666666        0.53333333334    0.333196566366667
Al        0.33333333334        0.46666666666         0.1665298997
N        0.26666666666        0.53333333334         0.1271753748
N        0.33333333334        0.46666666666    0.293842041466667
Al        0.46666666666        0.53333333334    0.333196566366667
Al        0.53333333334        0.46666666666         0.1665298997
N        0.46666666666        0.53333333334         0.1271753748
N        0.53333333334        0.46666666666    0.293842041466667
Al        0.66666666666        0.53333333334    0.333196566366667
Al        0.73333333334        0.46666666666         0.1665298997
N        0.66666666666        0.53333333334         0.1271753748
N        0.73333333334        0.46666666666    0.293842041466667
Al        0.86666666666        0.53333333334    0.333196566366667
Al        0.93333333334        0.46666666666         0.1665298997
N        0.86666666666        0.53333333334         0.1271753748
N        0.93333333334        0.46666666666    0.293842041466667
Al        0.06666666666        0.73333333334    0.333196566366667
Al        0.13333333334        0.66666666666         0.1665298997
N        0.06666666666        0.73333333334         0.1271753748
N        0.13333333334        0.66666666666    0.293842041466667
Al        0.26666666666        0.73333333334    0.333196566366667
Al        0.33333333334        0.66666666666         0.1665298997
N        0.26666666666        0.73333333334         0.1271753748
N        0.33333333334        0.66666666666    0.293842041466667
Al        0.46666666666        0.73333333334    0.333196566366667
Al        0.53333333334        0.66666666666         0.1665298997
N        0.46666666666        0.73333333334         0.1271753748
N        0.53333333334        0.66666666666    0.293842041466667
Al        0.66666666666        0.73333333334    0.333196566366667
Al        0.73333333334        0.66666666666         0.1665298997
N        0.66666666666        0.73333333334         0.1271753748
N        0.73333333334        0.66666666666    0.293842041466667
Al        0.86666666666        0.73333333334    0.333196566366667
Al        0.93333333334        0.66666666666         0.1665298997
N        0.86666666666        0.73333333334         0.1271753748
N        0.93333333334        0.66666666666    0.293842041466667
Al        0.06666666666        0.93333333334    0.333196566366667
Al        0.13333333334        0.86666666666         0.1665298997
N        0.06666666666        0.93333333334         0.1271753748
N        0.13333333334        0.86666666666    0.293842041466667
Al        0.26666666666        0.93333333334    0.333196566366667
Al        0.33333333334        0.86666666666         0.1665298997
N        0.26666666666        0.93333333334         0.1271753748
N        0.33333333334        0.86666666666    0.293842041466667
Al        0.46666666666        0.93333333334    0.333196566366667
Al        0.53333333334        0.86666666666         0.1665298997
N        0.46666666666        0.93333333334         0.1271753748
N        0.53333333334        0.86666666666    0.293842041466667
Al        0.66666666666        0.93333333334    0.333196566366667
Al        0.73333333334        0.86666666666         0.1665298997
N        0.66666666666        0.93333333334         0.1271753748
N        0.73333333334        0.86666666666    0.293842041466667
Al        0.86666666666        0.93333333334    0.333196566366667
Al        0.93333333334        0.86666666666         0.1665298997
N        0.86666666666        0.93333333334         0.1271753748
N        0.93333333334        0.86666666666    0.293842041466667
Al        0.06666666666        0.13333333334         0.6665298997
Al        0.13333333334        0.06666666666    0.499863233033333
N        0.06666666666        0.13333333334    0.460508708133333
N        0.13333333334        0.06666666666         0.6271753748
Al        0.26666666666        0.13333333334         0.6665298997
Al        0.33333333334        0.06666666666    0.499863233033333
N        0.26666666666        0.13333333334    0.460508708133333
N        0.33333333334        0.06666666666         0.6271753748
Al        0.46666666666        0.13333333334         0.6665298997
Al        0.53333333334        0.06666666666    0.499863233033333
N        0.46666666666        0.13333333334    0.460508708133333
N        0.53333333334        0.06666666666         0.6271753748
Al        0.66666666666        0.13333333334         0.6665298997
Al        0.73333333334        0.06666666666    0.499863233033333
N        0.66666666666        0.13333333334    0.460508708133333
N        0.73333333334        0.06666666666         0.6271753748
Al        0.86666666666        0.13333333334         0.6665298997
Al        0.93333333334        0.06666666666    0.499863233033333
N        0.86666666666        0.13333333334    0.460508708133333
N        0.93333333334        0.06666666666         0.6271753748
Al        0.06666666666        0.33333333334         0.6665298997
Al        0.13333333334        0.26666666666    0.499863233033333
N        0.06666666666        0.33333333334    0.460508708133333
N        0.13333333334        0.26666666666         0.6271753748
Al        0.26666666666        0.33333333334         0.6665298997
Al        0.33333333334        0.26666666666    0.499863233033333
N        0.26666666666        0.33333333334    0.460508708133333
N        0.33333333334        0.26666666666         0.6271753748
Al        0.46666666666        0.33333333334         0.6665298997
Al        0.53333333334        0.26666666666    0.499863233033333
N        0.46666666666        0.33333333334    0.460508708133333
N        0.53333333334        0.26666666666         0.6271753748
Al        0.66666666666        0.33333333334         0.6665298997
Al        0.73333333334        0.26666666666    0.499863233033333
N        0.66666666666        0.33333333334    0.460508708133333
N        0.73333333334        0.26666666666         0.6271753748
Al        0.86666666666        0.33333333334         0.6665298997
Al        0.93333333334        0.26666666666    0.499863233033333
N        0.86666666666        0.33333333334    0.460508708133333
N        0.93333333334        0.26666666666         0.6271753748
Al        0.06666666666        0.53333333334         0.6665298997
Al        0.13333333334        0.46666666666    0.499863233033333
N        0.06666666666        0.53333333334    0.460508708133333
N        0.13333333334        0.46666666666         0.6271753748
Al        0.26666666666        0.53333333334         0.6665298997
Al        0.33333333334        0.46666666666    0.499863233033333
N        0.26666666666        0.53333333334    0.460508708133333
N        0.33333333334        0.46666666666         0.6271753748
Al        0.46666666666        0.53333333334         0.6665298997
Al        0.53333333334        0.46666666666    0.499863233033333
N        0.46666666666        0.53333333334    0.460508708133333
N        0.53333333334        0.46666666666         0.6271753748
Al        0.66666666666        0.53333333334         0.6665298997
Al        0.73333333334        0.46666666666    0.499863233033333
N        0.66666666666        0.53333333334    0.460508708133333
N        0.73333333334        0.46666666666         0.6271753748
Al        0.86666666666        0.53333333334         0.6665298997
Al        0.93333333334        0.46666666666    0.499863233033333
N        0.86666666666        0.53333333334    0.460508708133333
N        0.93333333334        0.46666666666         0.6271753748
Al        0.06666666666        0.73333333334         0.6665298997
Al        0.13333333334        0.66666666666    0.499863233033333
N        0.06666666666        0.73333333334    0.460508708133333
N        0.13333333334        0.66666666666         0.6271753748
Al        0.26666666666        0.73333333334         0.6665298997
Al        0.33333333334        0.66666666666    0.499863233033333
N        0.26666666666        0.73333333334    0.460508708133333
N        0.33333333334        0.66666666666         0.6271753748
Al        0.46666666666        0.73333333334         0.6665298997
Al        0.53333333334        0.66666666666    0.499863233033333
N        0.46666666666        0.73333333334    0.460508708133333
N        0.53333333334        0.66666666666         0.6271753748
Al        0.66666666666        0.73333333334         0.6665298997
Al        0.73333333334        0.66666666666    0.499863233033333
N        0.66666666666        0.73333333334    0.460508708133333
N        0.73333333334        0.66666666666         0.6271753748
Al        0.86666666666        0.73333333334         0.6665298997
Al        0.93333333334        0.66666666666    0.499863233033333
N        0.86666666666        0.73333333334    0.460508708133333
N        0.93333333334        0.66666666666         0.6271753748
Al        0.06666666666        0.93333333334         0.6665298997
Al        0.13333333334        0.86666666666    0.499863233033333
N        0.06666666666        0.93333333334    0.460508708133333
N        0.13333333334        0.86666666666         0.6271753748
Al        0.26666666666        0.93333333334         0.6665298997
Al        0.33333333334        0.86666666666    0.499863233033333
N        0.26666666666        0.93333333334    0.460508708133333
N        0.33333333334        0.86666666666         0.6271753748
Al        0.46666666666        0.93333333334         0.6665298997
Al        0.53333333334        0.86666666666    0.499863233033333
N        0.46666666666        0.93333333334    0.460508708133333
N        0.53333333334        0.86666666666         0.6271753748
Al        0.66666666666        0.93333333334         0.6665298997
Al        0.73333333334        0.86666666666    0.499863233033333
N        0.66666666666        0.93333333334    0.460508708133333
N        0.73333333334        0.86666666666         0.6271753748
Al        0.86666666666        0.93333333334         0.6665298997
Al        0.93333333334        0.86666666666    0.499863233033333
N        0.86666666666        0.93333333334    0.460508708133333
N        0.93333333334        0.86666666666         0.6271753748
Al        0.06666666666        0.13333333334    0.999863233033333
Al        0.13333333334        0.06666666666    0.833196566366667
N        0.06666666666        0.13333333334    0.793842041466667
N        0.13333333334        0.06666666666    0.960508708133333
Al        0.26666666666        0.13333333334    0.999863233033333
Al        0.33333333334        0.06666666666    0.833196566366667
N        0.26666666666        0.13333333334    0.793842041466667
N        0.33333333334        0.06666666666    0.960508708133333
Al        0.46666666666        0.13333333334    0.999863233033333
Al        0.53333333334        0.06666666666    0.833196566366667
N        0.46666666666        0.13333333334    0.793842041466667
N        0.53333333334        0.06666666666    0.960508708133333
Al        0.66666666666        0.13333333334    0.999863233033333
Al        0.73333333334        0.06666666666    0.833196566366667
N        0.66666666666        0.13333333334    0.793842041466667
N        0.73333333334        0.06666666666    0.960508708133333
Al        0.86666666666        0.13333333334    0.999863233033333
Al        0.93333333334        0.06666666666    0.833196566366667
N        0.86666666666        0.13333333334    0.793842041466667
N        0.93333333334        0.06666666666    0.960508708133333
Al        0.06666666666        0.33333333334    0.999863233033333
Al        0.13333333334        0.26666666666    0.833196566366667
N        0.06666666666        0.33333333334    0.793842041466667
N        0.13333333334        0.26666666666    0.960508708133333
Al        0.26666666666        0.33333333334    0.999863233033333
Al        0.33333333334        0.26666666666    0.833196566366667
N        0.26666666666        0.33333333334    0.793842041466667
N        0.33333333334        0.26666666666    0.960508708133333
Al        0.46666666666        0.33333333334    0.999863233033333
Al        0.53333333334        0.26666666666    0.833196566366667
N        0.46666666666        0.33333333334    0.793842041466667
N        0.53333333334        0.26666666666    0.960508708133333
Al        0.66666666666        0.33333333334    0.999863233033333
Al        0.73333333334        0.26666666666    0.833196566366667
N        0.66666666666        0.33333333334    0.793842041466667
N        0.73333333334        0.26666666666    0.960508708133333
Al        0.86666666666        0.33333333334    0.999863233033333
Al        0.93333333334        0.26666666666    0.833196566366667
N        0.86666666666        0.33333333334    0.793842041466667
N        0.93333333334        0.26666666666    0.960508708133333
Al        0.06666666666        0.53333333334    0.999863233033333
Al        0.13333333334        0.46666666666    0.833196566366667
N        0.06666666666        0.53333333334    0.793842041466667
N        0.13333333334        0.46666666666    0.960508708133333
Al        0.26666666666        0.53333333334    0.999863233033333
Al        0.33333333334        0.46666666666    0.833196566366667
N        0.26666666666        0.53333333334    0.793842041466667
N        0.33333333334        0.46666666666    0.960508708133333
Al        0.46666666666        0.53333333334    0.999863233033333
Al        0.53333333334        0.46666666666    0.833196566366667
N        0.46666666666        0.53333333334    0.793842041466667
N        0.53333333334        0.46666666666    0.960508708133333
Al        0.66666666666        0.53333333334    0.999863233033333
Al        0.73333333334        0.46666666666    0.833196566366667
N        0.66666666666        0.53333333334    0.793842041466667
N        0.73333333334        0.46666666666    0.960508708133333
Al        0.86666666666        0.53333333334    0.999863233033333
Al        0.93333333334        0.46666666666    0.833196566366667
N        0.86666666666        0.53333333334    0.793842041466667
N        0.93333333334        0.46666666666    0.960508708133333
Al        0.06666666666        0.73333333334    0.999863233033333
Al        0.13333333334        0.66666666666    0.833196566366667
N        0.06666666666        0.73333333334    0.793842041466667
N        0.13333333334        0.66666666666    0.960508708133333
Al        0.26666666666        0.73333333334    0.999863233033333
Al        0.33333333334        0.66666666666    0.833196566366667
N        0.26666666666        0.73333333334    0.793842041466667
N        0.33333333334        0.66666666666    0.960508708133333
Al        0.46666666666        0.73333333334    0.999863233033333
Al        0.53333333334        0.66666666666    0.833196566366667
N        0.46666666666        0.73333333334    0.793842041466667
N        0.53333333334        0.66666666666    0.960508708133333
Al        0.66666666666        0.73333333334    0.999863233033333
Al        0.73333333334        0.66666666666    0.833196566366667
N        0.66666666666        0.73333333334    0.793842041466667
N        0.73333333334        0.66666666666    0.960508708133333
Al        0.86666666666        0.73333333334    0.999863233033333
Al        0.93333333334        0.66666666666    0.833196566366667
N        0.86666666666        0.73333333334    0.793842041466667
N        0.93333333334        0.66666666666    0.960508708133333
Al        0.06666666666        0.93333333334    0.999863233033333
Al        0.13333333334        0.86666666666    0.833196566366667
N        0.06666666666        0.93333333334    0.793842041466667
N        0.13333333334        0.86666666666    0.960508708133333
Al        0.26666666666        0.93333333334    0.999863233033333
Al        0.33333333334        0.86666666666    0.833196566366667
N        0.26666666666        0.93333333334    0.793842041466667
N        0.33333333334        0.86666666666    0.960508708133333
Al        0.46666666666        0.93333333334    0.999863233033333
Al        0.53333333334        0.86666666666    0.833196566366667
N        0.46666666666        0.93333333334    0.793842041466667
N        0.53333333334        0.86666666666    0.960508708133333
Al        0.66666666666        0.93333333334    0.999863233033333
Al        0.73333333334        0.86666666666    0.833196566366667
N        0.66666666666        0.93333333334    0.793842041466667
N        0.73333333334        0.86666666666    0.960508708133333
Al        0.86666666666        0.93333333334    0.999863233033333
Al        0.93333333334        0.86666666666    0.833196566366667
N        0.86666666666        0.93333333334    0.793842041466667
N        0.93333333334        0.86666666666    0.960508708133333
K_POINTS automatic
1 1 1 0 0 0 
CELL_PARAMETERS angstrom
    15.5792375134323                    0                    0
   -7.78961875671614     13.4920154582239                    0
                   0                    0     14.9622497928341
