 &control
    calculation     = 'scf'
    prefix          = 'Ge'
    restart_mode    = 'from_scratch'
    wf_collect      = .false.
    pseudo_dir      = '~/zxy/project_allen/pp/'
    outdir          = './'
    tprnfor         = .true.
    tstress         = .true.
 /
 &system
    ibrav           = 0
    nat             = 128
    ntyp            = 1
    ecutwfc         = 80
    ecutrho         = 400
    occupations     = 'smearing'
    smearing        = 'gaussian'
    degauss         = 0.02
 
 /
 &electrons
    diagonalization = 'david'
    mixing_beta     = 0.7
    conv_thr        = 1.0d-12
   
 /
ATOMIC_SPECIES
  Ge 72.630     Ge.pbesol-n-kjpaw_psl.1.0.0.UPF
ATOMIC_POSITIONS crystal
Ge 0.000439692361461252 -0.000439692361461252 0.000439692361461252
Ge               0.0625               0.0625               0.0625
Ge                 0.25                    0                    0
Ge    0.312939692361461   0.0620603076385388   0.0620603076385388
Ge                  0.5                    0                    0
Ge               0.5625               0.0625               0.0625
Ge                 0.75                    0                    0
Ge               0.8125               0.0625               0.0625
Ge                    0                 0.25                    0
Ge               0.0625               0.3125               0.0625
Ge                 0.25                 0.25                    0
Ge               0.3125               0.3125               0.0625
Ge                  0.5                 0.25                    0
Ge               0.5625               0.3125               0.0625
Ge                 0.75                 0.25                    0
Ge               0.8125               0.3125               0.0625
Ge                    0                  0.5                    0
Ge               0.0625               0.5625               0.0625
Ge                 0.25                  0.5                    0
Ge               0.3125               0.5625               0.0625
Ge                  0.5                  0.5                    0
Ge               0.5625               0.5625               0.0625
Ge                 0.75                  0.5                    0
Ge               0.8125               0.5625               0.0625
Ge                    0                 0.75                    0
Ge               0.0625               0.8125               0.0625
Ge                 0.25                 0.75                    0
Ge               0.3125               0.8125               0.0625
Ge                  0.5                 0.75                    0
Ge               0.5625               0.8125               0.0625
Ge                 0.75                 0.75                    0
Ge               0.8125               0.8125               0.0625
Ge                    0                    0                 0.25
Ge               0.0625               0.0625               0.3125
Ge                 0.25                    0                 0.25
Ge               0.3125               0.0625               0.3125
Ge                  0.5                    0                 0.25
Ge               0.5625               0.0625               0.3125
Ge                 0.75                    0                 0.25
Ge               0.8125               0.0625               0.3125
Ge                    0                 0.25                 0.25
Ge               0.0625               0.3125               0.3125
Ge                 0.25                 0.25                 0.25
Ge               0.3125               0.3125               0.3125
Ge                  0.5                 0.25                 0.25
Ge               0.5625               0.3125               0.3125
Ge                 0.75                 0.25                 0.25
Ge               0.8125               0.3125               0.3125
Ge                    0                  0.5                 0.25
Ge               0.0625               0.5625               0.3125
Ge                 0.25                  0.5                 0.25
Ge               0.3125               0.5625               0.3125
Ge                  0.5                  0.5                 0.25
Ge               0.5625               0.5625               0.3125
Ge                 0.75                  0.5                 0.25
Ge               0.8125               0.5625               0.3125
Ge                    0                 0.75                 0.25
Ge               0.0625               0.8125               0.3125
Ge                 0.25                 0.75                 0.25
Ge               0.3125               0.8125               0.3125
Ge                  0.5                 0.75                 0.25
Ge               0.5625               0.8125               0.3125
Ge                 0.75                 0.75                 0.25
Ge               0.8125               0.8125               0.3125
Ge                    0                    0                  0.5
Ge               0.0625               0.0625               0.5625
Ge                 0.25                    0                  0.5
Ge               0.3125               0.0625               0.5625
Ge                  0.5                    0                  0.5
Ge               0.5625               0.0625               0.5625
Ge                 0.75                    0                  0.5
Ge               0.8125               0.0625               0.5625
Ge                    0                 0.25                  0.5
Ge               0.0625               0.3125               0.5625
Ge                 0.25                 0.25                  0.5
Ge               0.3125               0.3125               0.5625
Ge                  0.5                 0.25                  0.5
Ge               0.5625               0.3125               0.5625
Ge                 0.75                 0.25                  0.5
Ge               0.8125               0.3125               0.5625
Ge                    0                  0.5                  0.5
Ge               0.0625               0.5625               0.5625
Ge                 0.25                  0.5                  0.5
Ge               0.3125               0.5625               0.5625
Ge                  0.5                  0.5                  0.5
Ge               0.5625               0.5625               0.5625
Ge                 0.75                  0.5                  0.5
Ge               0.8125               0.5625               0.5625
Ge                    0                 0.75                  0.5
Ge               0.0625               0.8125               0.5625
Ge                 0.25                 0.75                  0.5
Ge               0.3125               0.8125               0.5625
Ge                  0.5                 0.75                  0.5
Ge               0.5625               0.8125               0.5625
Ge                 0.75                 0.75                  0.5
Ge               0.8125               0.8125               0.5625
Ge                    0                    0                 0.75
Ge               0.0625               0.0625               0.8125
Ge                 0.25                    0                 0.75
Ge               0.3125               0.0625               0.8125
Ge                  0.5                    0                 0.75
Ge               0.5625               0.0625               0.8125
Ge                 0.75                    0                 0.75
Ge               0.8125               0.0625               0.8125
Ge                    0                 0.25                 0.75
Ge               0.0625               0.3125               0.8125
Ge                 0.25                 0.25                 0.75
Ge               0.3125               0.3125               0.8125
Ge                  0.5                 0.25                 0.75
Ge               0.5625               0.3125               0.8125
Ge                 0.75                 0.25                 0.75
Ge               0.8125               0.3125               0.8125
Ge                    0                  0.5                 0.75
Ge               0.0625               0.5625               0.8125
Ge                 0.25                  0.5                 0.75
Ge               0.3125               0.5625               0.8125
Ge                  0.5                  0.5                 0.75
Ge               0.5625               0.5625               0.8125
Ge                 0.75                  0.5                 0.75
Ge               0.8125               0.5625               0.8125
Ge                    0                 0.75                 0.75
Ge               0.0625               0.8125               0.8125
Ge                 0.25                 0.75                 0.75
Ge               0.3125               0.8125               0.8125
Ge                  0.5                 0.75                 0.75
Ge               0.5625               0.8125               0.8125
Ge                 0.75                 0.75                 0.75
Ge               0.8125               0.8125               0.8125
K_POINTS automatic 
2 2 2 0 0 0
CELL_PARAMETERS angstrom
   -11.3715871328382                    0     11.3715871328382
                   0     11.3715871328382     11.3715871328382
   -11.3715871328382     11.3715871328382                    0
