      SYSTEM = RbBr
      PREC = Accurate
    IBRION = -1
    NELMIN = 5
    NELM = 120
     ENCUT = 550
     EDIFF = 1.000000e-08
     EDIFFG = -1.000e-07
    ISMEAR = 0
     SIGMA = 0.05
     IALGO = 38
     LREAL = .FALSE.
   ADDGRID = .TRUE.
     LWAVE = .FALSE.
    LCHARG = .FALSE.
      NPAR = 8
