 Mo1 Se2
   1.000
    3.2693418953799998    0.0000000000000000    0.0000000000000000
   -1.6346709476899999    2.8313331350558464    0.0000000000000000
    0.0000000000000000    0.0000000000000000   40.0000000000000000
   Mo   Se
    1    2
Direct
    0.0000000000000000    0.0000000000000000    0.0000000000000000    Mo1
    0.3333333333333357    0.6666666666666643    0.0416391237729214    Se1
    0.3333333333333357    0.6666666666666643    0.9583608762270787    Se2
