SYSTEM = RbBr222
EDIFF = 1.0e-8
PREC = A

ENCUT= 300
ADDGRID = .TRUE.
LREAL=.FALSE.
ISMEAR = 0
SIGMA = 0.05

NPAR = 16
NCORE = 1


LWAVE = .FALSE.
LCHARG = .FALSE.

ISIF = 0 # calculate force only

GGA = PE # use PBE
