Rb32 Br32
1.0
14.044200 0.000000 0.000000
0.000000 14.044200 0.000000
0.000000 0.000000 14.044200
Rb Br
32 32
direct
0.000000 0.000000 0.000000 Rb
0.000000 0.000000 0.500000 Rb
0.000000 0.500000 0.000000 Rb
0.000000 0.500000 0.500000 Rb
0.500000 0.000000 0.000000 Rb
0.500000 0.000000 0.500000 Rb
0.500000 0.500000 0.000000 Rb
0.500000 0.500000 0.500000 Rb
0.000000 0.250000 0.250000 Rb
0.000000 0.250000 0.750000 Rb
0.000000 0.750000 0.250000 Rb
0.000000 0.750000 0.750000 Rb
0.500000 0.250000 0.250000 Rb
0.500000 0.250000 0.750000 Rb
0.500000 0.750000 0.250000 Rb
0.500000 0.750000 0.750000 Rb
0.250000 0.000000 0.250000 Rb
0.250000 0.000000 0.750000 Rb
0.250000 0.500000 0.250000 Rb
0.250000 0.500000 0.750000 Rb
0.750000 0.000000 0.250000 Rb
0.750000 0.000000 0.750000 Rb
0.750000 0.500000 0.250000 Rb
0.750000 0.500000 0.750000 Rb
0.250000 0.250000 0.000000 Rb
0.250000 0.250000 0.500000 Rb
0.250000 0.750000 0.000000 Rb
0.250000 0.750000 0.500000 Rb
0.750000 0.250000 0.000000 Rb
0.750000 0.250000 0.500000 Rb
0.750000 0.750000 0.000000 Rb
0.750000 0.750000 0.500000 Rb
0.250000 0.000000 0.000000 Br
0.250000 0.000000 0.500000 Br
0.250000 0.500000 0.000000 Br
0.250000 0.500000 0.500000 Br
0.750000 0.000000 0.000000 Br
0.750000 0.000000 0.500000 Br
0.750000 0.500000 0.000000 Br
0.750000 0.500000 0.500000 Br
0.250000 0.250000 0.250000 Br
0.250000 0.250000 0.750000 Br
0.250000 0.750000 0.250000 Br
0.250000 0.750000 0.750000 Br
0.750000 0.250000 0.250000 Br
0.750000 0.250000 0.750000 Br
0.750000 0.750000 0.250000 Br
0.750000 0.750000 0.750000 Br
0.000000 0.000000 0.250000 Br
0.000000 0.000000 0.750000 Br
0.000000 0.500000 0.250000 Br
0.000000 0.500000 0.750000 Br
0.500000 0.000000 0.250000 Br
0.500000 0.000000 0.750000 Br
0.500000 0.500000 0.250000 Br
0.500000 0.500000 0.750000 Br
0.000000 0.250000 0.000000 Br
0.000000 0.250000 0.500000 Br
0.000000 0.750000 0.000000 Br
0.000000 0.750000 0.500000 Br
0.500000 0.250000 0.000000 Br
0.500000 0.250000 0.500000 Br
0.500000 0.750000 0.000000 Br
0.500000 0.750000 0.500000 Br
