Primitive Cell
  1.000000
    0.00000000000000    3.51396500000000    3.51396500000000
    3.51396500000000    0.00000000000000    3.51396500000000
    3.51396500000000    3.51396500000000    0.00000000000000
  Rb  Br
   1   1
DIRECT
    0.0000000000000000    0.0000000000000000    0.0000000000000000    Rb1
    0.5000000000000000    0.5000000000000000    0.5000000000000000    Br1
