 &control
    calculation     = 'scf'
    prefix          = 'mose2'
    pseudo_dir      = '/scratch1/fanchem/MoSe2/pp'
    outdir          = './'
    wf_collect      = .true.
  etot_conv_thr=1.0D-7
  forc_conv_thr=1.0D-5
  tprnfor = .true.
  tstress = .true.
  verbosity = 'high'
/
 &system
    ibrav           = 0
    nat             = 75
    ntyp            = 2
    ecutwfc         = 102
    occupations     = 'fixed'
 /
 &electrons
    diagonalization = 'david'
    mixing_beta     = 0.7
    conv_thr        = 1.0d-16
    electron_maxstep	= 500
 /
&IONS
/
&CELL
press_conv_thr=0.1
cell_dofree='2Dxy'
/

ATOMIC_SPECIES
  Mo   95.95  Mo.pbesol-spn-kjpaw_psl.1.0.0.UPF
  Se   78.96  Se.pbesol-dn-kjpaw_psl.1.0.0.UPF 

ATOMIC_POSITIONS crystal
Mo        0.06666666666        0.13333333334                  0.5
Se    0.133945545321287        0.06666666666          0.436938349
Se        0.13333333334        0.06666666666          0.563061651
Mo        0.26666666666        0.13333333334                  0.5
Se        0.33333333334        0.06666666666          0.436938349
Se        0.33333333334        0.06666666666          0.563061651
Mo        0.46666666666        0.13333333334                  0.5
Se        0.53333333334        0.06666666666          0.436938349
Se        0.53333333334        0.06666666666          0.563061651
Mo        0.66666666666        0.13333333334                  0.5
Se        0.73333333334        0.06666666666          0.436938349
Se        0.73333333334        0.06666666666          0.563061651
Mo        0.86666666666        0.13333333334                  0.5
Se        0.93333333334        0.06666666666          0.436938349
Se        0.93333333334        0.06666666666          0.563061651
Mo        0.06666666666        0.33333333334                  0.5
Se        0.13333333334        0.26666666666          0.436938349
Se        0.13333333334        0.26666666666          0.563061651
Mo        0.26666666666        0.33333333334                  0.5
Se        0.33333333334        0.26666666666          0.436938349
Se        0.33333333334        0.26666666666          0.563061651
Mo        0.46666666666        0.33333333334                  0.5
Se    0.532721121358713        0.26666666666          0.436938349
Se        0.53333333334        0.26666666666          0.563061651
Mo        0.66666666666        0.33333333334                  0.5
Se        0.73333333334        0.26666666666          0.436938349
Se        0.73333333334        0.26666666666          0.563061651
Mo        0.86666666666        0.33333333334                  0.5
Se        0.93333333334        0.26666666666          0.436938349
Se        0.93333333334        0.26666666666          0.563061651
Mo        0.06666666666        0.53333333334                  0.5
Se        0.13333333334        0.46666666666          0.436938349
Se        0.13333333334        0.46666666666          0.563061651
Mo        0.26666666666        0.53333333334                  0.5
Se        0.33333333334        0.46666666666          0.436938349
Se        0.33333333334        0.46666666666          0.563061651
Mo        0.46666666666        0.53333333334                  0.5
Se        0.53333333334        0.46666666666          0.436938349
Se        0.53333333334        0.46666666666          0.563061651
Mo        0.66666666666        0.53333333334                  0.5
Se        0.73333333334        0.46666666666          0.436938349
Se        0.73333333334        0.46666666666          0.563061651
Mo        0.86666666666        0.53333333334                  0.5
Se        0.93333333334        0.46666666666          0.436938349
Se        0.93333333334        0.46666666666          0.563061651
Mo        0.06666666666        0.73333333334                  0.5
Se        0.13333333334        0.66666666666          0.436938349
Se        0.13333333334        0.66666666666          0.563061651
Mo        0.26666666666        0.73333333334                  0.5
Se        0.33333333334        0.66666666666          0.436938349
Se        0.33333333334        0.66666666666          0.563061651
Mo        0.46666666666        0.73333333334                  0.5
Se        0.53333333334        0.66666666666          0.436938349
Se        0.53333333334        0.66666666666          0.563061651
Mo        0.66666666666        0.73333333334                  0.5
Se        0.73333333334        0.66666666666          0.436938349
Se        0.73333333334        0.66666666666          0.563061651
Mo        0.86666666666        0.73333333334                  0.5
Se        0.93333333334        0.66666666666          0.436938349
Se        0.93333333334        0.66666666666          0.563061651
Mo        0.06666666666        0.93333333334                  0.5
Se        0.13333333334        0.86666666666          0.436938349
Se        0.13333333334        0.86666666666          0.563061651
Mo        0.26666666666        0.93333333334                  0.5
Se        0.33333333334        0.86666666666          0.436938349
Se        0.33333333334        0.86666666666          0.563061651
Mo        0.46666666666        0.93333333334                  0.5
Se        0.53333333334        0.86666666666          0.436938349
Se        0.53333333334        0.86666666666          0.563061651
Mo        0.66666666666        0.93333333334                  0.5
Se        0.73333333334        0.86666666666          0.436938349
Se        0.73333333334        0.86666666666          0.563061651
Mo        0.86666666666        0.93333333334                  0.5
Se        0.93333333334        0.86666666666          0.436938349
Se        0.93333333334        0.86666666666          0.563061651

CELL_PARAMETERS angstrom
    16.3342115242088                    0                    0
   -8.16710576210439     14.1458421307533                    0
                   0                    0     26.4000160511061

K_POINTS gamma
