KPT-Resolved Value to Generate K-Mesh: 0.020
0
Gamma
  7  7  7
0.0  0.0  0.0
