 &bands
    prefix  = 'AlN'
    outdir='./'
    filband = 'bands.dat'
 /

