P-6m2 (187) Mo1 Se2
1.000
    3.27007737004784    0.00000000000000    0.00000000000000
   -1.63503868502392    2.83197007480203    0.00000000000000
    0.00000000000000    0.00000000000000   18.34523182006400
Mo Se 
1 2 
Direct
    0.00000000000000     0.00000000000000     0.50000000000000 
    0.33333333333333     0.66666666666667     0.59076650096830 
    0.33333333333333     0.66666666666667     0.40923349903170 
