Al96 N96
1.000
    12.4541643706420     0.0000000000000     0.0000000000000
    -6.2270821853210    10.7856227278830     0.0000000000000
     0.0000000000000     0.0000000000000    14.9493478707229
Al N 
96 96 
Direct
    0.08333333333333     0.16666666666667     0.33300092202126
    0.08333333333333     0.16666666666667     0.66633425535459
    0.08333333333333     0.16666666666667     0.99966758868793
    0.08333333333333     0.41666666666667     0.33300092202126
    0.08333333333333     0.41666666666667     0.66633425535459
    0.08333333333333     0.41666666666667     0.99966758868793
    0.08333333333333     0.66666666666667     0.33300092202126
    0.08333333333333     0.66666666666667     0.66633425535459
    0.08333333333333     0.66666666666667     0.99966758868793
    0.08333333333333     0.91666666666667     0.33300092202126
    0.08333333333333     0.91666666666667     0.66633425535459
    0.08333333333333     0.91666666666667     0.99966758868793
    0.33333333333333     0.16666666666667     0.33300092202126
    0.33333333333333     0.16666666666667     0.66633425535459
    0.33333333333333     0.16666666666667     0.99966758868793
    0.33333333333333     0.41666666666667     0.33300092202126
    0.33333333333333     0.41666666666667     0.66633425535459
    0.33333333333333     0.41666666666667     0.99966758868793
    0.33333333333333     0.66666666666667     0.33300092202126
    0.33333333333333     0.66666666666667     0.66633425535459
    0.33333333333333     0.66666666666667     0.99966758868793
    0.33333333333333     0.91666666666667     0.33300092202126
    0.33333333333333     0.91666666666667     0.66633425535459
    0.33333333333333     0.91666666666667     0.99966758868793
    0.58333333333333     0.16666666666667     0.33300092202126
    0.58333333333333     0.16666666666667     0.66633425535459
    0.58333333333333     0.16666666666667     0.99966758868793
    0.58333333333333     0.41666666666667     0.33300092202126
    0.58333333333333     0.41666666666667     0.66633425535459
    0.58333333333333     0.41666666666667     0.99966758868793
    0.58333333333333     0.66666666666667     0.33300092202126
    0.58333333333333     0.66666666666667     0.66633425535459
    0.58333333333333     0.66666666666667     0.99966758868793
    0.58333333333333     0.91666666666667     0.33300092202126
    0.58333333333333     0.91666666666667     0.66633425535459
    0.58333333333333     0.91666666666667     0.99966758868793
    0.83333333333333     0.16666666666667     0.33300092202126
    0.83333333333333     0.16666666666667     0.66633425535459
    0.83333333333333     0.16666666666667     0.99966758868793
    0.83333333333333     0.41666666666667     0.33300092202126
    0.83333333333333     0.41666666666667     0.66633425535459
    0.83333333333333     0.41666666666667     0.99966758868793
    0.83333333333333     0.66666666666667     0.33300092202126
    0.83333333333333     0.66666666666667     0.66633425535459
    0.83333333333333     0.66666666666667     0.99966758868793
    0.83333333333333     0.91666666666667     0.33300092202126
    0.83333333333333     0.91666666666667     0.66633425535459
    0.83333333333333     0.91666666666667     0.99966758868793
    0.16666666666667     0.08333333333333     0.16633425535459
    0.16666666666667     0.08333333333333     0.49966758868793
    0.16666666666667     0.08333333333333     0.83300092202126
    0.16666666666667     0.33333333333333     0.16633425535459
    0.16666666666667     0.33333333333333     0.49966758868793
    0.16666666666667     0.33333333333333     0.83300092202126
    0.16666666666667     0.58333333333333     0.16633425535459
    0.16666666666667     0.58333333333333     0.49966758868793
    0.16666666666667     0.58333333333333     0.83300092202126
    0.16666666666667     0.83333333333333     0.16633425535459
    0.16666666666667     0.83333333333333     0.49966758868793
    0.16666666666667     0.83333333333333     0.83300092202126
    0.41666666666667     0.08333333333333     0.16633425535459
    0.41666666666667     0.08333333333333     0.49966758868793
    0.41666666666667     0.08333333333333     0.83300092202126
    0.41666666666667     0.33333333333333     0.16633425535459
    0.41666666666667     0.33333333333333     0.49966758868793
    0.41666666666667     0.33333333333333     0.83300092202126
    0.41666666666667     0.58333333333333     0.16633425535459
    0.41666666666667     0.58333333333333     0.49966758868793
    0.41666666666667     0.58333333333333     0.83300092202126
    0.41666666666667     0.83333333333333     0.16633425535459
    0.41666666666667     0.83333333333333     0.49966758868793
    0.41666666666667     0.83333333333333     0.83300092202126
    0.66666666666667     0.08333333333333     0.16633425535459
    0.66666666666667     0.08333333333333     0.49966758868793
    0.66666666666667     0.08333333333333     0.83300092202126
    0.66666666666667     0.33333333333333     0.16633425535459
    0.66666666666667     0.33333333333333     0.49966758868793
    0.66666666666667     0.33333333333333     0.83300092202126
    0.66666666666667     0.58333333333333     0.16633425535459
    0.66666666666667     0.58333333333333     0.49966758868793
    0.66666666666667     0.58333333333333     0.83300092202126
    0.66666666666667     0.83333333333333     0.16633425535459
    0.66666666666667     0.83333333333333     0.49966758868793
    0.66666666666667     0.83333333333333     0.83300092202126
    0.91666666666667     0.08333333333333     0.16633425535459
    0.91666666666667     0.08333333333333     0.49966758868793
    0.91666666666667     0.08333333333333     0.83300092202126
    0.91666666666667     0.33333333333333     0.16633425535459
    0.91666666666667     0.33333333333333     0.49966758868793
    0.91666666666667     0.33333333333333     0.83300092202126
    0.91666666666667     0.58333333333333     0.16633425535459
    0.91666666666667     0.58333333333333     0.49966758868793
    0.91666666666667     0.58333333333333     0.83300092202126
    0.91666666666667     0.83333333333333     0.16633425535459
    0.91666666666667     0.83333333333333     0.49966758868793
    0.91666666666667     0.83333333333333     0.83300092202126
    0.08333333333333     0.16666666666667     0.12699907797874
    0.08333333333333     0.16666666666667     0.46033241131207
    0.08333333333333     0.16666666666667     0.79366574464541
    0.08333333333333     0.41666666666667     0.12699907797874
    0.08333333333333     0.41666666666667     0.46033241131207
    0.08333333333333     0.41666666666667     0.79366574464541
    0.08333333333333     0.66666666666667     0.12699907797874
    0.08333333333333     0.66666666666667     0.46033241131207
    0.08333333333333     0.66666666666667     0.79366574464541
    0.08333333333333     0.91666666666667     0.12699907797874
    0.08333333333333     0.91666666666667     0.46033241131207
    0.08333333333333     0.91666666666667     0.79366574464541
    0.33333333333333     0.16666666666667     0.12699907797874
    0.33333333333333     0.16666666666667     0.46033241131207
    0.33333333333333     0.16666666666667     0.79366574464541
    0.33333333333333     0.41666666666667     0.12699907797874
    0.33333333333333     0.41666666666667     0.46033241131207
    0.33333333333333     0.41666666666667     0.79366574464541
    0.33333333333333     0.66666666666667     0.12699907797874
    0.33333333333333     0.66666666666667     0.46033241131207
    0.33333333333333     0.66666666666667     0.79366574464541
    0.33333333333333     0.91666666666667     0.12699907797874
    0.33333333333333     0.91666666666667     0.46033241131207
    0.33333333333333     0.91666666666667     0.79366574464541
    0.58333333333333     0.16666666666667     0.12699907797874
    0.58333333333333     0.16666666666667     0.46033241131207
    0.58333333333333     0.16666666666667     0.79366574464541
    0.58333333333333     0.41666666666667     0.12699907797874
    0.58333333333333     0.41666666666667     0.46033241131207
    0.58333333333333     0.41666666666667     0.79366574464541
    0.58333333333333     0.66666666666667     0.12699907797874
    0.58333333333333     0.66666666666667     0.46033241131207
    0.58333333333333     0.66666666666667     0.79366574464541
    0.58333333333333     0.91666666666667     0.12699907797874
    0.58333333333333     0.91666666666667     0.46033241131207
    0.58333333333333     0.91666666666667     0.79366574464541
    0.83333333333333     0.16666666666667     0.12699907797874
    0.83333333333333     0.16666666666667     0.46033241131207
    0.83333333333333     0.16666666666667     0.79366574464541
    0.83333333333333     0.41666666666667     0.12699907797874
    0.83333333333333     0.41666666666667     0.46033241131207
    0.83333333333333     0.41666666666667     0.79366574464541
    0.83333333333333     0.66666666666667     0.12699907797874
    0.83333333333333     0.66666666666667     0.46033241131207
    0.83333333333333     0.66666666666667     0.79366574464541
    0.83333333333333     0.91666666666667     0.12699907797874
    0.83333333333333     0.91666666666667     0.46033241131207
    0.83333333333333     0.91666666666667     0.79366574464541
    0.16666666666667     0.08333333333333     0.29366574464541
    0.16666666666667     0.08333333333333     0.62699907797874
    0.16666666666667     0.08333333333333     0.96033241131207
    0.16666666666667     0.33333333333333     0.29366574464541
    0.16666666666667     0.33333333333333     0.62699907797874
    0.16666666666667     0.33333333333333     0.96033241131207
    0.16666666666667     0.58333333333333     0.29366574464541
    0.16666666666667     0.58333333333333     0.62699907797874
    0.16666666666667     0.58333333333333     0.96033241131207
    0.16666666666667     0.83333333333333     0.29366574464541
    0.16666666666667     0.83333333333333     0.62699907797874
    0.16666666666667     0.83333333333333     0.96033241131207
    0.41666666666667     0.08333333333333     0.29366574464541
    0.41666666666667     0.08333333333333     0.62699907797874
    0.41666666666667     0.08333333333333     0.96033241131207
    0.41666666666667     0.33333333333333     0.29366574464541
    0.41666666666667     0.33333333333333     0.62699907797874
    0.41666666666667     0.33333333333333     0.96033241131207
    0.41666666666667     0.58333333333333     0.29366574464541
    0.41666666666667     0.58333333333333     0.62699907797874
    0.41666666666667     0.58333333333333     0.96033241131207
    0.41666666666667     0.83333333333333     0.29366574464541
    0.41666666666667     0.83333333333333     0.62699907797874
    0.41666666666667     0.83333333333333     0.96033241131207
    0.66666666666667     0.08333333333333     0.29366574464541
    0.66666666666667     0.08333333333333     0.62699907797874
    0.66666666666667     0.08333333333333     0.96033241131207
    0.66666666666667     0.33333333333333     0.29366574464541
    0.66666666666667     0.33333333333333     0.62699907797874
    0.66666666666667     0.33333333333333     0.96033241131207
    0.66666666666667     0.58333333333333     0.29366574464541
    0.66666666666667     0.58333333333333     0.62699907797874
    0.66666666666667     0.58333333333333     0.96033241131207
    0.66666666666667     0.83333333333333     0.29366574464541
    0.66666666666667     0.83333333333333     0.62699907797874
    0.66666666666667     0.83333333333333     0.96033241131207
    0.91666666666667     0.08333333333333     0.29366574464541
    0.91666666666667     0.08333333333333     0.62699907797874
    0.91666666666667     0.08333333333333     0.96033241131207
    0.91666666666667     0.33333333333333     0.29366574464541
    0.91666666666667     0.33333333333333     0.62699907797874
    0.91666666666667     0.33333333333333     0.96033241131207
    0.91666666666667     0.58333333333333     0.29366574464541
    0.91666666666667     0.58333333333333     0.62699907797874
    0.91666666666667     0.58333333333333     0.96033241131207
    0.91666666666667     0.83333333333333     0.29366574464541
    0.91666666666667     0.83333333333333     0.62699907797874
    0.91666666666667     0.83333333333333     0.96033241131207
