 &bands
    prefix  = 'MoSe2'
    outdir='./'
    filband = 'bands.dat'
 /
