 &bands
    prefix  = 'Ge'
    outdir='./'
    filband = 'bands.dat'
 /
