Ge512
1.000
    22.8076345366328     0.0000000000000     0.0000000000000
     0.0000000000000    22.8076345366328     0.0000000000000
     0.0000000000000     0.0000000000000    22.8076345366328
Ge 
512 
Direct
    0.75000000000000     0.00000000000000     0.00000000000000
    0.87500000000000     0.12500000000000     0.00000000000000
    0.87500000000000     0.00000000000000     0.12500000000000
    0.50000000000000     0.00000000000000     0.00000000000000
    0.62500000000000     0.12500000000000     0.00000000000000
    0.75000000000000     0.25000000000000     0.00000000000000
    0.87500000000000     0.37500000000000     0.00000000000000
    0.62500000000000     0.00000000000000     0.12500000000000
    0.75000000000000     0.12500000000000     0.12500000000000
    0.87500000000000     0.25000000000000     0.12500000000000
    0.75000000000000     0.00000000000000     0.25000000000000
    0.87500000000000     0.12500000000000     0.25000000000000
    0.87500000000000     0.00000000000000     0.37500000000000
    0.25000000000000     0.00000000000000     0.00000000000000
    0.37500000000000     0.12500000000000     0.00000000000000
    0.50000000000000     0.25000000000000     0.00000000000000
    0.62500000000000     0.37500000000000     0.00000000000000
    0.75000000000000     0.50000000000000     0.00000000000000
    0.87500000000000     0.62500000000000     0.00000000000000
    0.37500000000000     0.00000000000000     0.12500000000000
    0.50000000000000     0.12500000000000     0.12500000000000
    0.62500000000000     0.25000000000000     0.12500000000000
    0.75000000000000     0.37500000000000     0.12500000000000
    0.87500000000000     0.50000000000000     0.12500000000000
    0.50000000000000     0.00000000000000     0.25000000000000
    0.62500000000000     0.12500000000000     0.25000000000000
    0.75000000000000     0.25000000000000     0.25000000000000
    0.87500000000000     0.37500000000000     0.25000000000000
    0.62500000000000     0.00000000000000     0.37500000000000
    0.75000000000000     0.12500000000000     0.37500000000000
    0.87500000000000     0.25000000000000     0.37500000000000
    0.75000000000000     0.00000000000000     0.50000000000000
    0.87500000000000     0.12500000000000     0.50000000000000
    0.87500000000000     0.00000000000000     0.62500000000000
    0.00000000000000     0.00000000000000     0.00000000000000
    0.12500000000000     0.12500000000000     0.00000000000000
    0.25000000000000     0.25000000000000     0.00000000000000
    0.37500000000000     0.37500000000000     0.00000000000000
    0.50000000000000     0.50000000000000     0.00000000000000
    0.62500000000000     0.62500000000000     0.00000000000000
    0.75000000000000     0.75000000000000     0.00000000000000
    0.87500000000000     0.87500000000000     0.00000000000000
    0.12500000000000     0.00000000000000     0.12500000000000
    0.25000000000000     0.12500000000000     0.12500000000000
    0.37500000000000     0.25000000000000     0.12500000000000
    0.50000000000000     0.37500000000000     0.12500000000000
    0.62500000000000     0.50000000000000     0.12500000000000
    0.75000000000000     0.62500000000000     0.12500000000000
    0.87500000000000     0.75000000000000     0.12500000000000
    0.25000000000000     0.00000000000000     0.25000000000000
    0.37500000000000     0.12500000000000     0.25000000000000
    0.50000000000000     0.25000000000000     0.25000000000000
    0.62500000000000     0.37500000000000     0.25000000000000
    0.75000000000000     0.50000000000000     0.25000000000000
    0.87500000000000     0.62500000000000     0.25000000000000
    0.37500000000000     0.00000000000000     0.37500000000000
    0.50000000000000     0.12500000000000     0.37500000000000
    0.62500000000000     0.25000000000000     0.37500000000000
    0.75000000000000     0.37500000000000     0.37500000000000
    0.87500000000000     0.50000000000000     0.37500000000000
    0.50000000000000     0.00000000000000     0.50000000000000
    0.62500000000000     0.12500000000000     0.50000000000000
    0.75000000000000     0.25000000000000     0.50000000000000
    0.87500000000000     0.37500000000000     0.50000000000000
    0.62500000000000     0.00000000000000     0.62500000000000
    0.75000000000000     0.12500000000000     0.62500000000000
    0.87500000000000     0.25000000000000     0.62500000000000
    0.75000000000000     0.00000000000000     0.75000000000000
    0.87500000000000     0.12500000000000     0.75000000000000
    0.87500000000000     0.00000000000000     0.87500000000000
    0.00000000000000     0.25000000000000     0.00000000000000
    0.12500000000000     0.37500000000000     0.00000000000000
    0.25000000000000     0.50000000000000     0.00000000000000
    0.37500000000000     0.62500000000000     0.00000000000000
    0.50000000000000     0.75000000000000     0.00000000000000
    0.62500000000000     0.87500000000000     0.00000000000000
    0.00000000000000     0.12500000000000     0.12500000000000
    0.12500000000000     0.25000000000000     0.12500000000000
    0.25000000000000     0.37500000000000     0.12500000000000
    0.37500000000000     0.50000000000000     0.12500000000000
    0.50000000000000     0.62500000000000     0.12500000000000
    0.62500000000000     0.75000000000000     0.12500000000000
    0.75000000000000     0.87500000000000     0.12500000000000
    0.00000000000000     0.00000000000000     0.25000000000000
    0.12500000000000     0.12500000000000     0.25000000000000
    0.25000000000000     0.25000000000000     0.25000000000000
    0.37500000000000     0.37500000000000     0.25000000000000
    0.50000000000000     0.50000000000000     0.25000000000000
    0.62500000000000     0.62500000000000     0.25000000000000
    0.75000000000000     0.75000000000000     0.25000000000000
    0.87500000000000     0.87500000000000     0.25000000000000
    0.12500000000000     0.00000000000000     0.37500000000000
    0.25000000000000     0.12500000000000     0.37500000000000
    0.37500000000000     0.25000000000000     0.37500000000000
    0.50000000000000     0.37500000000000     0.37500000000000
    0.62500000000000     0.50000000000000     0.37500000000000
    0.75000000000000     0.62500000000000     0.37500000000000
    0.87500000000000     0.75000000000000     0.37500000000000
    0.25000000000000     0.00000000000000     0.50000000000000
    0.37500000000000     0.12500000000000     0.50000000000000
    0.50000000000000     0.25000000000000     0.50000000000000
    0.62500000000000     0.37500000000000     0.50000000000000
    0.75000000000000     0.50000000000000     0.50000000000000
    0.87500000000000     0.62500000000000     0.50000000000000
    0.37500000000000     0.00000000000000     0.62500000000000
    0.50000000000000     0.12500000000000     0.62500000000000
    0.62500000000000     0.25000000000000     0.62500000000000
    0.75000000000000     0.37500000000000     0.62500000000000
    0.87500000000000     0.50000000000000     0.62500000000000
    0.50000000000000     0.00000000000000     0.75000000000000
    0.62500000000000     0.12500000000000     0.75000000000000
    0.75000000000000     0.25000000000000     0.75000000000000
    0.87500000000000     0.37500000000000     0.75000000000000
    0.62500000000000     0.00000000000000     0.87500000000000
    0.75000000000000     0.12500000000000     0.87500000000000
    0.87500000000000     0.25000000000000     0.87500000000000
    0.00000000000000     0.50000000000000     0.00000000000000
    0.12500000000000     0.62500000000000     0.00000000000000
    0.25000000000000     0.75000000000000     0.00000000000000
    0.37500000000000     0.87500000000000     0.00000000000000
    0.00000000000000     0.37500000000000     0.12500000000000
    0.12500000000000     0.50000000000000     0.12500000000000
    0.25000000000000     0.62500000000000     0.12500000000000
    0.37500000000000     0.75000000000000     0.12500000000000
    0.50000000000000     0.87500000000000     0.12500000000000
    0.00000000000000     0.25000000000000     0.25000000000000
    0.12500000000000     0.37500000000000     0.25000000000000
    0.25000000000000     0.50000000000000     0.25000000000000
    0.37500000000000     0.62500000000000     0.25000000000000
    0.50000000000000     0.75000000000000     0.25000000000000
    0.62500000000000     0.87500000000000     0.25000000000000
    0.00000000000000     0.12500000000000     0.37500000000000
    0.12500000000000     0.25000000000000     0.37500000000000
    0.25000000000000     0.37500000000000     0.37500000000000
    0.37500000000000     0.50000000000000     0.37500000000000
    0.50000000000000     0.62500000000000     0.37500000000000
    0.62500000000000     0.75000000000000     0.37500000000000
    0.75000000000000     0.87500000000000     0.37500000000000
    0.00000000000000     0.00000000000000     0.50000000000000
    0.12500000000000     0.12500000000000     0.50000000000000
    0.25000000000000     0.25000000000000     0.50000000000000
    0.37500000000000     0.37500000000000     0.50000000000000
    0.50000000000000     0.50000000000000     0.50000000000000
    0.62500000000000     0.62500000000000     0.50000000000000
    0.75000000000000     0.75000000000000     0.50000000000000
    0.87500000000000     0.87500000000000     0.50000000000000
    0.12500000000000     0.00000000000000     0.62500000000000
    0.25000000000000     0.12500000000000     0.62500000000000
    0.37500000000000     0.25000000000000     0.62500000000000
    0.50000000000000     0.37500000000000     0.62500000000000
    0.62500000000000     0.50000000000000     0.62500000000000
    0.75000000000000     0.62500000000000     0.62500000000000
    0.87500000000000     0.75000000000000     0.62500000000000
    0.25000000000000     0.00000000000000     0.75000000000000
    0.37500000000000     0.12500000000000     0.75000000000000
    0.50000000000000     0.25000000000000     0.75000000000000
    0.62500000000000     0.37500000000000     0.75000000000000
    0.75000000000000     0.50000000000000     0.75000000000000
    0.87500000000000     0.62500000000000     0.75000000000000
    0.37500000000000     0.00000000000000     0.87500000000000
    0.50000000000000     0.12500000000000     0.87500000000000
    0.62500000000000     0.25000000000000     0.87500000000000
    0.75000000000000     0.37500000000000     0.87500000000000
    0.87500000000000     0.50000000000000     0.87500000000000
    0.00000000000000     0.75000000000000     0.00000000000000
    0.12500000000000     0.87500000000000     0.00000000000000
    0.00000000000000     0.62500000000000     0.12500000000000
    0.12500000000000     0.75000000000000     0.12500000000000
    0.25000000000000     0.87500000000000     0.12500000000000
    0.00000000000000     0.50000000000000     0.25000000000000
    0.12500000000000     0.62500000000000     0.25000000000000
    0.25000000000000     0.75000000000000     0.25000000000000
    0.37500000000000     0.87500000000000     0.25000000000000
    0.00000000000000     0.37500000000000     0.37500000000000
    0.12500000000000     0.50000000000000     0.37500000000000
    0.25000000000000     0.62500000000000     0.37500000000000
    0.37500000000000     0.75000000000000     0.37500000000000
    0.50000000000000     0.87500000000000     0.37500000000000
    0.00000000000000     0.25000000000000     0.50000000000000
    0.12500000000000     0.37500000000000     0.50000000000000
    0.25000000000000     0.50000000000000     0.50000000000000
    0.37500000000000     0.62500000000000     0.50000000000000
    0.50000000000000     0.75000000000000     0.50000000000000
    0.62500000000000     0.87500000000000     0.50000000000000
    0.00000000000000     0.12500000000000     0.62500000000000
    0.12500000000000     0.25000000000000     0.62500000000000
    0.25000000000000     0.37500000000000     0.62500000000000
    0.37500000000000     0.50000000000000     0.62500000000000
    0.50000000000000     0.62500000000000     0.62500000000000
    0.62500000000000     0.75000000000000     0.62500000000000
    0.75000000000000     0.87500000000000     0.62500000000000
    0.00000000000000     0.00000000000000     0.75000000000000
    0.12500000000000     0.12500000000000     0.75000000000000
    0.25000000000000     0.25000000000000     0.75000000000000
    0.37500000000000     0.37500000000000     0.75000000000000
    0.50000000000000     0.50000000000000     0.75000000000000
    0.62500000000000     0.62500000000000     0.75000000000000
    0.75000000000000     0.75000000000000     0.75000000000000
    0.87500000000000     0.87500000000000     0.75000000000000
    0.12500000000000     0.00000000000000     0.87500000000000
    0.25000000000000     0.12500000000000     0.87500000000000
    0.37500000000000     0.25000000000000     0.87500000000000
    0.50000000000000     0.37500000000000     0.87500000000000
    0.62500000000000     0.50000000000000     0.87500000000000
    0.75000000000000     0.62500000000000     0.87500000000000
    0.87500000000000     0.75000000000000     0.87500000000000
    0.00000000000000     0.87500000000000     0.12500000000000
    0.00000000000000     0.75000000000000     0.25000000000000
    0.12500000000000     0.87500000000000     0.25000000000000
    0.00000000000000     0.62500000000000     0.37500000000000
    0.12500000000000     0.75000000000000     0.37500000000000
    0.25000000000000     0.87500000000000     0.37500000000000
    0.00000000000000     0.50000000000000     0.50000000000000
    0.12500000000000     0.62500000000000     0.50000000000000
    0.25000000000000     0.75000000000000     0.50000000000000
    0.37500000000000     0.87500000000000     0.50000000000000
    0.00000000000000     0.37500000000000     0.62500000000000
    0.12500000000000     0.50000000000000     0.62500000000000
    0.25000000000000     0.62500000000000     0.62500000000000
    0.37500000000000     0.75000000000000     0.62500000000000
    0.50000000000000     0.87500000000000     0.62500000000000
    0.00000000000000     0.25000000000000     0.75000000000000
    0.12500000000000     0.37500000000000     0.75000000000000
    0.25000000000000     0.50000000000000     0.75000000000000
    0.37500000000000     0.62500000000000     0.75000000000000
    0.50000000000000     0.75000000000000     0.75000000000000
    0.62500000000000     0.87500000000000     0.75000000000000
    0.00000000000000     0.12500000000000     0.87500000000000
    0.12500000000000     0.25000000000000     0.87500000000000
    0.25000000000000     0.37500000000000     0.87500000000000
    0.37500000000000     0.50000000000000     0.87500000000000
    0.50000000000000     0.62500000000000     0.87500000000000
    0.62500000000000     0.75000000000000     0.87500000000000
    0.75000000000000     0.87500000000000     0.87500000000000
    0.00000000000000     0.87500000000000     0.37500000000000
    0.00000000000000     0.75000000000000     0.50000000000000
    0.12500000000000     0.87500000000000     0.50000000000000
    0.00000000000000     0.62500000000000     0.62500000000000
    0.12500000000000     0.75000000000000     0.62500000000000
    0.25000000000000     0.87500000000000     0.62500000000000
    0.00000000000000     0.50000000000000     0.75000000000000
    0.12500000000000     0.62500000000000     0.75000000000000
    0.25000000000000     0.75000000000000     0.75000000000000
    0.37500000000000     0.87500000000000     0.75000000000000
    0.00000000000000     0.37500000000000     0.87500000000000
    0.12500000000000     0.50000000000000     0.87500000000000
    0.25000000000000     0.62500000000000     0.87500000000000
    0.37500000000000     0.75000000000000     0.87500000000000
    0.50000000000000     0.87500000000000     0.87500000000000
    0.00000000000000     0.87500000000000     0.62500000000000
    0.00000000000000     0.75000000000000     0.75000000000000
    0.12500000000000     0.87500000000000     0.75000000000000
    0.00000000000000     0.62500000000000     0.87500000000000
    0.12500000000000     0.75000000000000     0.87500000000000
    0.25000000000000     0.87500000000000     0.87500000000000
    0.00000000000000     0.87500000000000     0.87500000000000
    0.81250000000000     0.06250000000000     0.06250000000000
    0.93750000000000     0.18750000000000     0.06250000000000
    0.93750000000000     0.06250000000000     0.18750000000000
    0.56250000000000     0.06250000000000     0.06250000000000
    0.68750000000000     0.18750000000000     0.06250000000000
    0.81250000000000     0.31250000000000     0.06250000000000
    0.93750000000000     0.43750000000000     0.06250000000000
    0.68750000000000     0.06250000000000     0.18750000000000
    0.81250000000000     0.18750000000000     0.18750000000000
    0.93750000000000     0.31250000000000     0.18750000000000
    0.81250000000000     0.06250000000000     0.31250000000000
    0.93750000000000     0.18750000000000     0.31250000000000
    0.93750000000000     0.06250000000000     0.43750000000000
    0.31250000000000     0.06250000000000     0.06250000000000
    0.43750000000000     0.18750000000000     0.06250000000000
    0.56250000000000     0.31250000000000     0.06250000000000
    0.68750000000000     0.43750000000000     0.06250000000000
    0.81250000000000     0.56250000000000     0.06250000000000
    0.93750000000000     0.68750000000000     0.06250000000000
    0.43750000000000     0.06250000000000     0.18750000000000
    0.56250000000000     0.18750000000000     0.18750000000000
    0.68750000000000     0.31250000000000     0.18750000000000
    0.81250000000000     0.43750000000000     0.18750000000000
    0.93750000000000     0.56250000000000     0.18750000000000
    0.56250000000000     0.06250000000000     0.31250000000000
    0.68750000000000     0.18750000000000     0.31250000000000
    0.81250000000000     0.31250000000000     0.31250000000000
    0.93750000000000     0.43750000000000     0.31250000000000
    0.68750000000000     0.06250000000000     0.43750000000000
    0.81250000000000     0.18750000000000     0.43750000000000
    0.93750000000000     0.31250000000000     0.43750000000000
    0.81250000000000     0.06250000000000     0.56250000000000
    0.93750000000000     0.18750000000000     0.56250000000000
    0.93750000000000     0.06250000000000     0.68750000000000
    0.06250000000000     0.06250000000000     0.06250000000000
    0.18750000000000     0.18750000000000     0.06250000000000
    0.31250000000000     0.31250000000000     0.06250000000000
    0.43750000000000     0.43750000000000     0.06250000000000
    0.56250000000000     0.56250000000000     0.06250000000000
    0.68750000000000     0.68750000000000     0.06250000000000
    0.81250000000000     0.81250000000000     0.06250000000000
    0.93750000000000     0.93750000000000     0.06250000000000
    0.18750000000000     0.06250000000000     0.18750000000000
    0.31250000000000     0.18750000000000     0.18750000000000
    0.43750000000000     0.31250000000000     0.18750000000000
    0.56250000000000     0.43750000000000     0.18750000000000
    0.68750000000000     0.56250000000000     0.18750000000000
    0.81250000000000     0.68750000000000     0.18750000000000
    0.93750000000000     0.81250000000000     0.18750000000000
    0.31250000000000     0.06250000000000     0.31250000000000
    0.43750000000000     0.18750000000000     0.31250000000000
    0.56250000000000     0.31250000000000     0.31250000000000
    0.68750000000000     0.43750000000000     0.31250000000000
    0.81250000000000     0.56250000000000     0.31250000000000
    0.93750000000000     0.68750000000000     0.31250000000000
    0.43750000000000     0.06250000000000     0.43750000000000
    0.56250000000000     0.18750000000000     0.43750000000000
    0.68750000000000     0.31250000000000     0.43750000000000
    0.81250000000000     0.43750000000000     0.43750000000000
    0.93750000000000     0.56250000000000     0.43750000000000
    0.56250000000000     0.06250000000000     0.56250000000000
    0.68750000000000     0.18750000000000     0.56250000000000
    0.81250000000000     0.31250000000000     0.56250000000000
    0.93750000000000     0.43750000000000     0.56250000000000
    0.68750000000000     0.06250000000000     0.68750000000000
    0.81250000000000     0.18750000000000     0.68750000000000
    0.93750000000000     0.31250000000000     0.68750000000000
    0.81250000000000     0.06250000000000     0.81250000000000
    0.93750000000000     0.18750000000000     0.81250000000000
    0.93750000000000     0.06250000000000     0.93750000000000
    0.06250000000000     0.31250000000000     0.06250000000000
    0.18750000000000     0.43750000000000     0.06250000000000
    0.31250000000000     0.56250000000000     0.06250000000000
    0.43750000000000     0.68750000000000     0.06250000000000
    0.56250000000000     0.81250000000000     0.06250000000000
    0.68750000000000     0.93750000000000     0.06250000000000
    0.06250000000000     0.18750000000000     0.18750000000000
    0.18750000000000     0.31250000000000     0.18750000000000
    0.31250000000000     0.43750000000000     0.18750000000000
    0.43750000000000     0.56250000000000     0.18750000000000
    0.56250000000000     0.68750000000000     0.18750000000000
    0.68750000000000     0.81250000000000     0.18750000000000
    0.81250000000000     0.93750000000000     0.18750000000000
    0.06250000000000     0.06250000000000     0.31250000000000
    0.18750000000000     0.18750000000000     0.31250000000000
    0.31250000000000     0.31250000000000     0.31250000000000
    0.43750000000000     0.43750000000000     0.31250000000000
    0.56250000000000     0.56250000000000     0.31250000000000
    0.68750000000000     0.68750000000000     0.31250000000000
    0.81250000000000     0.81250000000000     0.31250000000000
    0.93750000000000     0.93750000000000     0.31250000000000
    0.18750000000000     0.06250000000000     0.43750000000000
    0.31250000000000     0.18750000000000     0.43750000000000
    0.43750000000000     0.31250000000000     0.43750000000000
    0.56250000000000     0.43750000000000     0.43750000000000
    0.68750000000000     0.56250000000000     0.43750000000000
    0.81250000000000     0.68750000000000     0.43750000000000
    0.93750000000000     0.81250000000000     0.43750000000000
    0.31250000000000     0.06250000000000     0.56250000000000
    0.43750000000000     0.18750000000000     0.56250000000000
    0.56250000000000     0.31250000000000     0.56250000000000
    0.68750000000000     0.43750000000000     0.56250000000000
    0.81250000000000     0.56250000000000     0.56250000000000
    0.93750000000000     0.68750000000000     0.56250000000000
    0.43750000000000     0.06250000000000     0.68750000000000
    0.56250000000000     0.18750000000000     0.68750000000000
    0.68750000000000     0.31250000000000     0.68750000000000
    0.81250000000000     0.43750000000000     0.68750000000000
    0.93750000000000     0.56250000000000     0.68750000000000
    0.56250000000000     0.06250000000000     0.81250000000000
    0.68750000000000     0.18750000000000     0.81250000000000
    0.81250000000000     0.31250000000000     0.81250000000000
    0.93750000000000     0.43750000000000     0.81250000000000
    0.68750000000000     0.06250000000000     0.93750000000000
    0.81250000000000     0.18750000000000     0.93750000000000
    0.93750000000000     0.31250000000000     0.93750000000000
    0.06250000000000     0.56250000000000     0.06250000000000
    0.18750000000000     0.68750000000000     0.06250000000000
    0.31250000000000     0.81250000000000     0.06250000000000
    0.43750000000000     0.93750000000000     0.06250000000000
    0.06250000000000     0.43750000000000     0.18750000000000
    0.18750000000000     0.56250000000000     0.18750000000000
    0.31250000000000     0.68750000000000     0.18750000000000
    0.43750000000000     0.81250000000000     0.18750000000000
    0.56250000000000     0.93750000000000     0.18750000000000
    0.06250000000000     0.31250000000000     0.31250000000000
    0.18750000000000     0.43750000000000     0.31250000000000
    0.31250000000000     0.56250000000000     0.31250000000000
    0.43750000000000     0.68750000000000     0.31250000000000
    0.56250000000000     0.81250000000000     0.31250000000000
    0.68750000000000     0.93750000000000     0.31250000000000
    0.06250000000000     0.18750000000000     0.43750000000000
    0.18750000000000     0.31250000000000     0.43750000000000
    0.31250000000000     0.43750000000000     0.43750000000000
    0.43750000000000     0.56250000000000     0.43750000000000
    0.56250000000000     0.68750000000000     0.43750000000000
    0.68750000000000     0.81250000000000     0.43750000000000
    0.81250000000000     0.93750000000000     0.43750000000000
    0.06250000000000     0.06250000000000     0.56250000000000
    0.18750000000000     0.18750000000000     0.56250000000000
    0.31250000000000     0.31250000000000     0.56250000000000
    0.43750000000000     0.43750000000000     0.56250000000000
    0.56250000000000     0.56250000000000     0.56250000000000
    0.68750000000000     0.68750000000000     0.56250000000000
    0.81250000000000     0.81250000000000     0.56250000000000
    0.93750000000000     0.93750000000000     0.56250000000000
    0.18750000000000     0.06250000000000     0.68750000000000
    0.31250000000000     0.18750000000000     0.68750000000000
    0.43750000000000     0.31250000000000     0.68750000000000
    0.56250000000000     0.43750000000000     0.68750000000000
    0.68750000000000     0.56250000000000     0.68750000000000
    0.81250000000000     0.68750000000000     0.68750000000000
    0.93750000000000     0.81250000000000     0.68750000000000
    0.31250000000000     0.06250000000000     0.81250000000000
    0.43750000000000     0.18750000000000     0.81250000000000
    0.56250000000000     0.31250000000000     0.81250000000000
    0.68750000000000     0.43750000000000     0.81250000000000
    0.81250000000000     0.56250000000000     0.81250000000000
    0.93750000000000     0.68750000000000     0.81250000000000
    0.43750000000000     0.06250000000000     0.93750000000000
    0.56250000000000     0.18750000000000     0.93750000000000
    0.68750000000000     0.31250000000000     0.93750000000000
    0.81250000000000     0.43750000000000     0.93750000000000
    0.93750000000000     0.56250000000000     0.93750000000000
    0.06250000000000     0.81250000000000     0.06250000000000
    0.18750000000000     0.93750000000000     0.06250000000000
    0.06250000000000     0.68750000000000     0.18750000000000
    0.18750000000000     0.81250000000000     0.18750000000000
    0.31250000000000     0.93750000000000     0.18750000000000
    0.06250000000000     0.56250000000000     0.31250000000000
    0.18750000000000     0.68750000000000     0.31250000000000
    0.31250000000000     0.81250000000000     0.31250000000000
    0.43750000000000     0.93750000000000     0.31250000000000
    0.06250000000000     0.43750000000000     0.43750000000000
    0.18750000000000     0.56250000000000     0.43750000000000
    0.31250000000000     0.68750000000000     0.43750000000000
    0.43750000000000     0.81250000000000     0.43750000000000
    0.56250000000000     0.93750000000000     0.43750000000000
    0.06250000000000     0.31250000000000     0.56250000000000
    0.18750000000000     0.43750000000000     0.56250000000000
    0.31250000000000     0.56250000000000     0.56250000000000
    0.43750000000000     0.68750000000000     0.56250000000000
    0.56250000000000     0.81250000000000     0.56250000000000
    0.68750000000000     0.93750000000000     0.56250000000000
    0.06250000000000     0.18750000000000     0.68750000000000
    0.18750000000000     0.31250000000000     0.68750000000000
    0.31250000000000     0.43750000000000     0.68750000000000
    0.43750000000000     0.56250000000000     0.68750000000000
    0.56250000000000     0.68750000000000     0.68750000000000
    0.68750000000000     0.81250000000000     0.68750000000000
    0.81250000000000     0.93750000000000     0.68750000000000
    0.06250000000000     0.06250000000000     0.81250000000000
    0.18750000000000     0.18750000000000     0.81250000000000
    0.31250000000000     0.31250000000000     0.81250000000000
    0.43750000000000     0.43750000000000     0.81250000000000
    0.56250000000000     0.56250000000000     0.81250000000000
    0.68750000000000     0.68750000000000     0.81250000000000
    0.81250000000000     0.81250000000000     0.81250000000000
    0.93750000000000     0.93750000000000     0.81250000000000
    0.18750000000000     0.06250000000000     0.93750000000000
    0.31250000000000     0.18750000000000     0.93750000000000
    0.43750000000000     0.31250000000000     0.93750000000000
    0.56250000000000     0.43750000000000     0.93750000000000
    0.68750000000000     0.56250000000000     0.93750000000000
    0.81250000000000     0.68750000000000     0.93750000000000
    0.93750000000000     0.81250000000000     0.93750000000000
    0.06250000000000     0.93750000000000     0.18750000000000
    0.06250000000000     0.81250000000000     0.31250000000000
    0.18750000000000     0.93750000000000     0.31250000000000
    0.06250000000000     0.68750000000000     0.43750000000000
    0.18750000000000     0.81250000000000     0.43750000000000
    0.31250000000000     0.93750000000000     0.43750000000000
    0.06250000000000     0.56250000000000     0.56250000000000
    0.18750000000000     0.68750000000000     0.56250000000000
    0.31250000000000     0.81250000000000     0.56250000000000
    0.43750000000000     0.93750000000000     0.56250000000000