&CONTROL
   calculation      = 'scf'
   tstress          = .true.
   tprnfor          = .true.
   outdir           = 'RbBr'
   prefix           = 'RbBr'
   pseudo_dir       = './'
/
&SYSTEM
   ecutwfc          = 50
   ecutrho          = 400
   occupations      = 'fixed'
   ntyp             = 2
   nat              = 2
   ibrav            = 0
/
&ELECTRONS
   electron_maxstep = 300
   conv_thr         = 1e-10
/
&IONS
/
&CELL
/

ATOMIC_SPECIES
Rb 85.4677651 Rb.pbe-spn-kjpaw_psl.1.0.0.UPF
Br 79.9032138 Br.pbe-n-kjpaw_psl.1.0.0.UPF

K_POINTS automatic
6 6 6 0 0 0

CELL_PARAMETERS angstrom
-3.509 0.00000000000000 3.509
0.00000000000000 3.509 3.509
-3.509 3.509 0.00000000000000

ATOMIC_POSITIONS angstrom
Rb 0.0000000000 0.0000000000 0.0000000000 
Br -3.509 3.509 3.509 
