 &bands
    prefix  = 'RbBr'
    outdir='./'
    filband = 'bands.dat'
 /

