Ge primitive
   5.702    
     0.0 0.5 0.5
     0.5 0.0 0.5
     0.5 0.5 0.0
   Ge
     2
Direct
  0.0000000000000000 -0.0000000000000000 -0.0000000000000000
  0.2500000000000000  0.2500000000000000  0.2500000000000000
 
  0.00000000E+00  0.00000000E+00  0.00000000E+00
  0.00000000E+00  0.00000000E+00  0.00000000E+00
