&BANDS
prefix = 'mose2'
outdir = '.'
filband = 'seg1.dat'
spin_component=1
/

