 &control
    calculation     = 'bands'
    prefix          = 'mose2'
    pseudo_dir      = '/scratch1/fanchem/MoSe2/pp'
    outdir          = './'
    wf_collect      = .true.
  etot_conv_thr=1.0D-7
  forc_conv_thr=1.0D-5
  tprnfor = .true.
  tstress = .true.
  verbosity = 'high'
/
 &system
    ibrav           = 4
    celldm(1)       = 6.1734372482938036
    celldm(3)       = 8.0812030663307259111514328195356
    nat             = 3
    ntyp            = 2
    ecutwfc         = 102
    occupations     = 'fixed'
    nbnd = 32
 /
 &electrons
    diagonalization = 'david'
    mixing_beta     = 0.7
    conv_thr        = 1.0d-10
 /
&IONS
/
&CELL
press_conv_thr=0.1
cell_dofree='2Dxy'
/

ATOMIC_SPECIES
  Mo   95.95  Mo.pbesol-spn-kjpaw_psl.1.0.0.UPF
  Se   78.96  Se.pbesol-dn-kjpaw_psl.1.0.0.UPF 
ATOMIC_POSITIONS {crystal}
Mo            0.3333333333        0.6666666667        0.5000000000
Se            0.6666666667        0.3333333333        0.4369383490
Se            0.6666666667        0.3333333333        0.5630616510

K_POINTS crystal_b
 3
gG 100
K 100
M 100
