--
&inputph
tr2_ph=1.0d-15,
prefix='AlN',
outdir='./tmp',
fildyn='AlN.dyn',
fildvscf='dvscf'
ldisp=.true.,
nq1=6, nq2=6, nq3=6
/
