 &input
   fildyn  =  'AlN.dyn'
   zasr    =  'crystal', 
   flfrc   =  'AlN.fc'
 /
