&BANDS
prefix = 'ge'
outdir = '.'
filband = 'seg1.dat'
spin_component=1
/

