 &control
    calculation     = 'bands'
    prefix          = 'ge'
    pseudo_dir      = '/scratch1/fanchem/Ge/pp'
    outdir          = './'
    wf_collect      = .true.
  etot_conv_thr=1.0D-7
  forc_conv_thr=1.0D-5
  tprnfor = .true.
  tstress = .true.
  verbosity = 'high'
/
 &system
    ibrav           = 2
    celldm(1)       = 10.74659327820010134
    nat             = 2
    ntyp            = 1
    ecutwfc         = 66
    occupations     = 'smearing'
    smearing        = 'gauss'
    degauss         = 0.02
    nbnd = 10
 /
 &electrons
    diagonalization = 'david'
    mixing_beta     = 0.7
    conv_thr        = 1.0d-10
 /
&IONS
/
&CELL
press_conv_thr=0.1
/

ATOMIC_SPECIES
  Ge   72.64  Ge.pbesol-n-kjpaw_psl.1.0.0.UPF
ATOMIC_POSITIONS {crystal}
  Ge   0.00  0.00  0.00
  Ge   0.25  0.25  0.25
K_POINTS crystal_b
 3
gG 100
K 100
X 100
