P6_3mc (186) Al2 N2
1.000
    3.11354109266049    0.00000000000000    0.00000000000000
   -1.55677054633025    2.69640568197074    0.00000000000000
    0.00000000000000    0.00000000000000    4.98311595690762
Al N 
2 2 
Direct
    0.33333333333333     0.66666666666667     0.99900276606378 
    0.66666666666667     0.33333333333333     0.49900276606378 
    0.33333333333333     0.66666666666667     0.38099723393622 
    0.66666666666667     0.33333333333333     0.88099723393622 
