 &control
    calculation     = 'scf'
    prefix          = 'Ge'
    restart_mode    = 'from_scratch'
    wf_collect      = .true.
    pseudo_dir      = '/home/k0489/k048900/pp'
    outdir          = './temp'
    tprnfor         = .true.
    tstress         = .true.
    nstep	    = 55,
    iprint          = 1,
    dt              = 150,
    etot_conv_thr   = 1.0E-5,
    forc_conv_thr   = 1.0D-4,
    verbosity = 'high'
 /
 &system
    ibrav           = 1
    celldm(1)        = 32.235
    nat             = 216
    ntyp            = 1
    ecutwfc         = 35
    ecutrho         = 140
    occupations     = 'fixed'
    degauss	    = 0.2
    
    !occupations = 'tetrahedra-opt'
    !degauss	    = 0.02
    !nbnd	    = 30
    !noncolin        =.true.
    !lspinorb        =.true.
 /
 &electrons
    diagonalization = 'david'
    mixing_beta     = 0.7
    conv_thr        = 1.0d-7
 /
 &ions
 /
&CELL
    cell_dynamics   = 'bfgs',
    press           = 0.00,
    wmass           = 0.007,
/    
ATOMIC_SPECIES
  Ge  72.64 Ge.pbesol-n-kjpaw_psl.1.0.0.UPF
ATOMIC_POSITIONS (crystal)
Ge 0.000000000000000 0.000000000000000 0.000000000000000 
Ge 0.083333333333333 0.083333333333333 0.083333333333333 
Ge 0.000000000000000 0.166666666666667 0.166666666666667 
Ge 0.083333333333333 0.250000000000000 0.250000000000000 
Ge 0.166666666666667 0.000000000000000 0.166666666666667 
Ge 0.250000000000000 0.083333333333333 0.250000000000000 
Ge 0.166666666666667 0.166666666666667 0.000000000000000 
Ge 0.250000000000000 0.250000000000000 0.083333333333333 
Ge 0.000000000000000 0.000000000000000 0.333333333333333 
Ge 0.083333333333333 0.083333333333333 0.416666666666667 
Ge 0.000000000000000 0.166666666666667 0.500000000000000 
Ge 0.083333333333333 0.250000000000000 0.583333333333333 
Ge 0.166666666666667 0.000000000000000 0.500000000000000 
Ge 0.250000000000000 0.083333333333333 0.583333333333333 
Ge 0.166666666666667 0.166666666666667 0.333333333333333 
Ge 0.250000000000000 0.250000000000000 0.416666666666667 
Ge 0.000000000000000 0.000000000000000 0.666666666666667 
Ge 0.083333333333333 0.083333333333333 0.750000000000000 
Ge 0.000000000000000 0.166666666666667 0.833333333333333 
Ge 0.083333333333333 0.250000000000000 0.916666666666667 
Ge 0.166666666666667 0.000000000000000 0.833333333333333 
Ge 0.250000000000000 0.083333333333333 0.916666666666667 
Ge 0.166666666666667 0.166666666666667 0.666666666666667 
Ge 0.250000000000000 0.250000000000000 0.750000000000000 
Ge 0.000000000000000 0.333333333333333 0.000000000000000 
Ge 0.083333333333333 0.416666666666667 0.083333333333333 
Ge 0.000000000000000 0.500000000000000 0.166666666666667 
Ge 0.083333333333333 0.583333333333333 0.250000000000000 
Ge 0.166666666666667 0.333333333333333 0.166666666666667 
Ge 0.250000000000000 0.416666666666667 0.250000000000000 
Ge 0.166666666666667 0.500000000000000 0.000000000000000 
Ge 0.250000000000000 0.583333333333333 0.083333333333333 
Ge 0.000000000000000 0.333333333333333 0.333333333333333 
Ge 0.083333333333333 0.416666666666667 0.416666666666667 
Ge 0.000000000000000 0.500000000000000 0.500000000000000 
Ge 0.083333333333333 0.583333333333333 0.583333333333333 
Ge 0.166666666666667 0.333333333333333 0.500000000000000 
Ge 0.250000000000000 0.416666666666667 0.583333333333333 
Ge 0.166666666666667 0.500000000000000 0.333333333333333 
Ge 0.250000000000000 0.583333333333333 0.416666666666667 
Ge 0.000000000000000 0.333333333333333 0.666666666666667 
Ge 0.083333333333333 0.416666666666667 0.750000000000000 
Ge 0.000000000000000 0.500000000000000 0.833333333333333 
Ge 0.083333333333333 0.583333333333333 0.916666666666667 
Ge 0.166666666666667 0.333333333333333 0.833333333333333 
Ge 0.250000000000000 0.416666666666667 0.916666666666667 
Ge 0.166666666666667 0.500000000000000 0.666666666666667 
Ge 0.250000000000000 0.583333333333333 0.750000000000000 
Ge 0.000000000000000 0.666666666666667 0.000000000000000 
Ge 0.083333333333333 0.750000000000000 0.083333333333333 
Ge 0.000000000000000 0.833333333333333 0.166666666666667 
Ge 0.083333333333333 0.916666666666667 0.250000000000000 
Ge 0.166666666666667 0.666666666666667 0.166666666666667 
Ge 0.250000000000000 0.750000000000000 0.250000000000000 
Ge 0.166666666666667 0.833333333333333 0.000000000000000 
Ge 0.250000000000000 0.916666666666667 0.083333333333333 
Ge 0.000000000000000 0.666666666666667 0.333333333333333 
Ge 0.083333333333333 0.750000000000000 0.416666666666667 
Ge 0.000000000000000 0.833333333333333 0.500000000000000 
Ge 0.083333333333333 0.916666666666667 0.583333333333333 
Ge 0.166666666666667 0.666666666666667 0.500000000000000 
Ge 0.250000000000000 0.750000000000000 0.583333333333333 
Ge 0.166666666666667 0.833333333333333 0.333333333333333 
Ge 0.250000000000000 0.916666666666667 0.416666666666667 
Ge 0.000000000000000 0.666666666666667 0.666666666666667 
Ge 0.083333333333333 0.750000000000000 0.750000000000000 
Ge 0.000000000000000 0.833333333333333 0.833333333333333 
Ge 0.083333333333333 0.916666666666667 0.916666666666667 
Ge 0.166666666666667 0.666666666666667 0.833333333333333 
Ge 0.250000000000000 0.750000000000000 0.916666666666667 
Ge 0.166666666666667 0.833333333333333 0.666666666666667 
Ge 0.250000000000000 0.916666666666667 0.750000000000000 
Ge 0.333333333333333 0.000000000000000 0.000000000000000 
Ge 0.416666666666667 0.083333333333333 0.083333333333333 
Ge 0.333333333333333 0.166666666666667 0.166666666666667 
Ge 0.416666666666667 0.250000000000000 0.250000000000000 
Ge 0.500000000000000 0.000000000000000 0.166666666666667 
Ge 0.583333333333333 0.083333333333333 0.250000000000000 
Ge 0.500000000000000 0.166666666666667 0.000000000000000 
Ge 0.583333333333333 0.250000000000000 0.083333333333333 
Ge 0.333333333333333 0.000000000000000 0.333333333333333 
Ge 0.416666666666667 0.083333333333333 0.416666666666667 
Ge 0.333333333333333 0.166666666666667 0.500000000000000 
Ge 0.416666666666667 0.250000000000000 0.583333333333333 
Ge 0.500000000000000 0.000000000000000 0.500000000000000 
Ge 0.583333333333333 0.083333333333333 0.583333333333333 
Ge 0.500000000000000 0.166666666666667 0.333333333333333 
Ge 0.583333333333333 0.250000000000000 0.416666666666667 
Ge 0.333333333333333 0.000000000000000 0.666666666666667 
Ge 0.416666666666667 0.083333333333333 0.750000000000000 
Ge 0.333333333333333 0.166666666666667 0.833333333333333 
Ge 0.416666666666667 0.250000000000000 0.916666666666667 
Ge 0.500000000000000 0.000000000000000 0.833333333333333 
Ge 0.583333333333333 0.083333333333333 0.916666666666667 
Ge 0.500000000000000 0.166666666666667 0.666666666666667 
Ge 0.583333333333333 0.250000000000000 0.750000000000000 
Ge 0.333333333333333 0.333333333333333 0.000000000000000 
Ge 0.416666666666667 0.416666666666667 0.083333333333333 
Ge 0.333333333333333 0.500000000000000 0.166666666666667 
Ge 0.416666666666667 0.583333333333333 0.250000000000000 
Ge 0.500000000000000 0.333333333333333 0.166666666666667 
Ge 0.583333333333333 0.416666666666667 0.250000000000000 
Ge 0.500000000000000 0.500000000000000 0.000000000000000 
Ge 0.583333333333333 0.583333333333333 0.083333333333333 
Ge 0.333333333333333 0.333333333333333 0.333333333333333 
Ge 0.416666666666667 0.416666666666667 0.416666666666667 
Ge 0.333333333333333 0.500000000000000 0.500000000000000 
Ge 0.416666666666667 0.583333333333333 0.583333333333333 
Ge 0.500000000000000 0.333333333333333 0.500000000000000 
Ge 0.583333333333333 0.416666666666667 0.583333333333333 
Ge 0.500000000000000 0.500000000000000 0.333333333333333 
Ge 0.583333333333333 0.583333333333333 0.416666666666667 
Ge 0.333333333333333 0.333333333333333 0.666666666666667 
Ge 0.416666666666667 0.416666666666667 0.750000000000000 
Ge 0.333333333333333 0.500000000000000 0.833333333333333 
Ge 0.416666666666667 0.583333333333333 0.916666666666667 
Ge 0.500000000000000 0.333333333333333 0.833333333333333 
Ge 0.583333333333333 0.416666666666667 0.916666666666667 
Ge 0.500000000000000 0.500000000000000 0.666666666666667 
Ge 0.583333333333333 0.583333333333333 0.750000000000000 
Ge 0.333333333333333 0.666666666666667 0.000000000000000 
Ge 0.416666666666667 0.750000000000000 0.083333333333333 
Ge 0.333333333333333 0.833333333333333 0.166666666666667 
Ge 0.416666666666667 0.916666666666667 0.250000000000000 
Ge 0.500000000000000 0.666666666666667 0.166666666666667 
Ge 0.583333333333333 0.750000000000000 0.250000000000000 
Ge 0.500000000000000 0.833333333333333 0.000000000000000 
Ge 0.583333333333333 0.916666666666667 0.083333333333333 
Ge 0.333333333333333 0.666666666666667 0.333333333333333 
Ge 0.416666666666667 0.750000000000000 0.416666666666667 
Ge 0.333333333333333 0.833333333333333 0.500000000000000 
Ge 0.416666666666667 0.916666666666667 0.583333333333333 
Ge 0.500000000000000 0.666666666666667 0.500000000000000 
Ge 0.583333333333333 0.750000000000000 0.583333333333333 
Ge 0.500000000000000 0.833333333333333 0.333333333333333 
Ge 0.583333333333333 0.916666666666667 0.416666666666667 
Ge 0.333333333333333 0.666666666666667 0.666666666666667 
Ge 0.416666666666667 0.750000000000000 0.750000000000000 
Ge 0.333333333333333 0.833333333333333 0.833333333333333 
Ge 0.416666666666667 0.916666666666667 0.916666666666667 
Ge 0.500000000000000 0.666666666666667 0.833333333333333 
Ge 0.583333333333333 0.750000000000000 0.916666666666667 
Ge 0.500000000000000 0.833333333333333 0.666666666666667 
Ge 0.583333333333333 0.916666666666667 0.750000000000000 
Ge 0.666666666666667 0.000000000000000 0.000000000000000 
Ge 0.750000000000000 0.083333333333333 0.083333333333333 
Ge 0.666666666666667 0.166666666666667 0.166666666666667 
Ge 0.750000000000000 0.250000000000000 0.250000000000000 
Ge 0.833333333333333 0.000000000000000 0.166666666666667 
Ge 0.916666666666667 0.083333333333333 0.250000000000000 
Ge 0.833333333333333 0.166666666666667 0.000000000000000 
Ge 0.916666666666667 0.250000000000000 0.083333333333333 
Ge 0.666666666666667 0.000000000000000 0.333333333333333 
Ge 0.750000000000000 0.083333333333333 0.416666666666667 
Ge 0.666666666666667 0.166666666666667 0.500000000000000 
Ge 0.750000000000000 0.250000000000000 0.583333333333333 
Ge 0.833333333333333 0.000000000000000 0.500000000000000 
Ge 0.916666666666667 0.083333333333333 0.583333333333333 
Ge 0.833333333333333 0.166666666666667 0.333333333333333 
Ge 0.916666666666667 0.250000000000000 0.416666666666667 
Ge 0.666666666666667 0.000000000000000 0.666666666666667 
Ge 0.750000000000000 0.083333333333333 0.750000000000000 
Ge 0.666666666666667 0.166666666666667 0.833333333333333 
Ge 0.750000000000000 0.250000000000000 0.916666666666667 
Ge 0.833333333333333 0.000000000000000 0.833333333333333 
Ge 0.916666666666667 0.083333333333333 0.916666666666667 
Ge 0.833333333333333 0.166666666666667 0.666666666666667 
Ge 0.916666666666667 0.250000000000000 0.750000000000000 
Ge 0.666666666666667 0.333333333333333 0.000000000000000 
Ge 0.750000000000000 0.416666666666667 0.083333333333333 
Ge 0.666666666666667 0.500000000000000 0.166666666666667 
Ge 0.750000000000000 0.583333333333333 0.250000000000000 
Ge 0.833333333333333 0.333333333333333 0.166666666666667 
Ge 0.916666666666667 0.416666666666667 0.250000000000000 
Ge 0.833333333333333 0.500000000000000 0.000000000000000 
Ge 0.916666666666667 0.583333333333333 0.083333333333333 
Ge 0.666666666666667 0.333333333333333 0.333333333333333 
Ge 0.750000000000000 0.416666666666667 0.416666666666667 
Ge 0.666666666666667 0.500000000000000 0.500000000000000 
Ge 0.750000000000000 0.583333333333333 0.583333333333333 
Ge 0.833333333333333 0.333333333333333 0.500000000000000 
Ge 0.916666666666667 0.416666666666667 0.583333333333333 
Ge 0.833333333333333 0.500000000000000 0.333333333333333 
Ge 0.916666666666667 0.583333333333333 0.416666666666667 
Ge 0.666666666666667 0.333333333333333 0.666666666666667 
Ge 0.750000000000000 0.416666666666667 0.750000000000000 
Ge 0.666666666666667 0.500000000000000 0.833333333333333 
Ge 0.750000000000000 0.583333333333333 0.916666666666667 
Ge 0.833333333333333 0.333333333333333 0.833333333333333 
Ge 0.916666666666667 0.416666666666667 0.916666666666667 
Ge 0.833333333333333 0.500000000000000 0.666666666666667 
Ge 0.916666666666667 0.583333333333333 0.750000000000000 
Ge 0.666666666666667 0.666666666666667 0.000000000000000 
Ge 0.750000000000000 0.750000000000000 0.083333333333333 
Ge 0.666666666666667 0.833333333333333 0.166666666666667 
Ge 0.750000000000000 0.916666666666667 0.250000000000000 
Ge 0.833333333333333 0.666666666666667 0.166666666666667 
Ge 0.916666666666667 0.750000000000000 0.250000000000000 
Ge 0.833333333333333 0.833333333333333 0.000000000000000 
Ge 0.916666666666667 0.916666666666667 0.083333333333333 
Ge 0.666666666666667 0.666666666666667 0.333333333333333 
Ge 0.750000000000000 0.750000000000000 0.416666666666667 
Ge 0.666666666666667 0.833333333333333 0.500000000000000 
Ge 0.750000000000000 0.916666666666667 0.583333333333333 
Ge 0.833333333333333 0.666666666666667 0.500000000000000 
Ge 0.916666666666667 0.750000000000000 0.583333333333333 
Ge 0.833333333333333 0.833333333333333 0.333333333333333 
Ge 0.916666666666667 0.916666666666667 0.416666666666667 
Ge 0.666666666666667 0.666666666666667 0.666666666666667 
Ge 0.750000000000000 0.750000000000000 0.750000000000000 
Ge 0.666666666666667 0.833333333333333 0.833333333333333 
Ge 0.750000000000000 0.916666666666667 0.916666666666667 
Ge 0.833333333333333 0.666666666666667 0.833333333333333 
Ge 0.916666666666667 0.750000000000000 0.916666666666667 
Ge 0.833333333333333 0.833333333333333 0.666666666666667 
Ge 0.916666666666667 0.916666666666667 0.750000000000000 
K_POINTS automatic
4 4 4 1 1 1
