      SYSTEM = Ge
      PREC = Accurate
       GGA = PS
    IBRION = -1
    NELMIN = 5
     ENCUT = 600
     EDIFF = 1.000000e-08
    ISMEAR = 0
     SIGMA = 0.05
     IALGO = 38
     LREAL = .FALSE.
   ADDGRID = .TRUE.
      NCORE = 8
    NBANDS = 10
