Automatic mesh
0 
Gamma
     24     24     24
    0.000 0.000 0.000 
