--
&inputph
tr2_ph=1.0d-15,
prefix='Ge',
outdir='./tmp',
fildyn='Ge.dyn',
fildvscf='dvscf'
ldisp=.true.,
nq1=7, nq2=7, nq3=7
/
