 &input
   fildyn  =  'Ge.dyn'
   zasr    =  'crystal', 
   flfrc   =  'Ge.fc'
 /
