 &control
    calculation     = 'bands'
    prefix          = 'Ge'
    restart_mode    = 'from_scratch'
    wf_collect      = .true.
    pseudo_dir      = './'
    outdir          = './temp'
    tprnfor         = .true.
    tstress         = .true.
    nstep	        = 55,
    iprint          = 1,
    dt              = 150,
    etot_conv_thr   = 1.0E-5,
    forc_conv_thr   = 1.0D-4,
 /
 &system
    ibrav           = 2
    celldm(1)       = 10.745
    nat             = 2
    ntyp            = 1
    ecutwfc         = 60 
    occupations     = 'fixed'
    degauss	    = 0.02
    nbnd	    = 10
    !noncolin        =.true.
    !lspinorb        =.true.
 /
 &electrons
    diagonalization = 'david'
    mixing_beta     = 0.7
    conv_thr        = 1.0d-5
 /
 &ions
 /
&CELL
    cell_dynamics   = 'bfgs',
    press           = 0.00,
    wmass           = 0.007,
/    
ATOMIC_SPECIES
  Ge  72.64 Ge.pbesol-n-kjpaw_psl.1.0.0.UPF
ATOMIC_POSITIONS crystal 
  Ge   0.00  0.00  0.00
  Ge   0.25  0.25  0.25
K_POINTS crystal
304
0.00000000 0.00000000 0.00000000 1
0.00500000 0.00000000 0.00500000 1
0.01000000 0.00000000 0.01000000 1
0.01500000 0.00000000 0.01500000 1
0.02000000 0.00000000 0.02000000 1
0.02500000 0.00000000 0.02500000 1
0.03000000 0.00000000 0.03000000 1
0.03500000 0.00000000 0.03500000 1
0.04000000 0.00000000 0.04000000 1
0.04500000 0.00000000 0.04500000 1
0.05000000 0.00000000 0.05000000 1
0.05500000 0.00000000 0.05500000 1
0.06000000 0.00000000 0.06000000 1
0.06500000 0.00000000 0.06500000 1
0.07000000 0.00000000 0.07000000 1
0.07500000 0.00000000 0.07500000 1
0.08000000 0.00000000 0.08000000 1
0.08500000 0.00000000 0.08500000 1
0.09000000 0.00000000 0.09000000 1
0.09500000 0.00000000 0.09500000 1
0.10000000 0.00000000 0.10000000 1
0.10500000 0.00000000 0.10500000 1
0.11000000 0.00000000 0.11000000 1
0.11500000 0.00000000 0.11500000 1
0.12000000 0.00000000 0.12000000 1
0.12500000 0.00000000 0.12500000 1
0.13000000 0.00000000 0.13000000 1
0.13500000 0.00000000 0.13500000 1
0.14000000 0.00000000 0.14000000 1
0.14500000 0.00000000 0.14500000 1
0.15000000 0.00000000 0.15000000 1
0.15500000 0.00000000 0.15500000 1
0.16000000 0.00000000 0.16000000 1
0.16500000 0.00000000 0.16500000 1
0.17000000 0.00000000 0.17000000 1
0.17500000 0.00000000 0.17500000 1
0.18000000 0.00000000 0.18000000 1
0.18500000 0.00000000 0.18500000 1
0.19000000 0.00000000 0.19000000 1
0.19500000 0.00000000 0.19500000 1
0.20000000 0.00000000 0.20000000 1
0.20500000 0.00000000 0.20500000 1
0.21000000 0.00000000 0.21000000 1
0.21500000 0.00000000 0.21500000 1
0.22000000 0.00000000 0.22000000 1
0.22500000 0.00000000 0.22500000 1
0.23000000 0.00000000 0.23000000 1
0.23500000 0.00000000 0.23500000 1
0.24000000 0.00000000 0.24000000 1
0.24500000 0.00000000 0.24500000 1
0.25000000 0.00000000 0.25000000 1
0.25500000 0.00000000 0.25500000 1
0.26000000 0.00000000 0.26000000 1
0.26500000 0.00000000 0.26500000 1
0.27000000 0.00000000 0.27000000 1
0.27500000 0.00000000 0.27500000 1
0.28000000 0.00000000 0.28000000 1
0.28500000 0.00000000 0.28500000 1
0.29000000 0.00000000 0.29000000 1
0.29500000 0.00000000 0.29500000 1
0.30000000 0.00000000 0.30000000 1
0.30500000 0.00000000 0.30500000 1
0.31000000 0.00000000 0.31000000 1
0.31500000 0.00000000 0.31500000 1
0.32000000 0.00000000 0.32000000 1
0.32500000 0.00000000 0.32500000 1
0.33000000 0.00000000 0.33000000 1
0.33500000 0.00000000 0.33500000 1
0.34000000 0.00000000 0.34000000 1
0.34500000 0.00000000 0.34500000 1
0.35000000 0.00000000 0.35000000 1
0.35500000 0.00000000 0.35500000 1
0.36000000 0.00000000 0.36000000 1
0.36500000 0.00000000 0.36500000 1
0.37000000 0.00000000 0.37000000 1
0.37500000 0.00000000 0.37500000 1
0.38000000 0.00000000 0.38000000 1
0.38500000 0.00000000 0.38500000 1
0.39000000 0.00000000 0.39000000 1
0.39500000 0.00000000 0.39500000 1
0.40000000 0.00000000 0.40000000 1
0.40500000 0.00000000 0.40500000 1
0.41000000 0.00000000 0.41000000 1
0.41500000 0.00000000 0.41500000 1
0.42000000 0.00000000 0.42000000 1
0.42500000 0.00000000 0.42500000 1
0.43000000 0.00000000 0.43000000 1
0.43500000 0.00000000 0.43500000 1
0.44000000 0.00000000 0.44000000 1
0.44500000 0.00000000 0.44500000 1
0.45000000 0.00000000 0.45000000 1
0.45500000 0.00000000 0.45500000 1
0.46000000 0.00000000 0.46000000 1
0.46500000 0.00000000 0.46500000 1
0.47000000 0.00000000 0.47000000 1
0.47500000 0.00000000 0.47500000 1
0.48000000 0.00000000 0.48000000 1
0.48500000 0.00000000 0.48500000 1
0.49000000 0.00000000 0.49000000 1
0.49500000 0.00000000 0.49500000 1
0.50000000 0.00000000 0.50000000 1
0.50000000 0.00000000 0.50000000 1
0.50250000 0.00500000 0.50250000 1
0.50500000 0.01000000 0.50500000 1
0.50750000 0.01500000 0.50750000 1
0.51000000 0.02000000 0.51000000 1
0.51250000 0.02500000 0.51250000 1
0.51500000 0.03000000 0.51500000 1
0.51750000 0.03500000 0.51750000 1
0.52000000 0.04000000 0.52000000 1
0.52250000 0.04500000 0.52250000 1
0.52500000 0.05000000 0.52500000 1
0.52750000 0.05500000 0.52750000 1
0.53000000 0.06000000 0.53000000 1
0.53250000 0.06500000 0.53250000 1
0.53500000 0.07000000 0.53500000 1
0.53750000 0.07500000 0.53750000 1
0.54000000 0.08000000 0.54000000 1
0.54250000 0.08500000 0.54250000 1
0.54500000 0.09000000 0.54500000 1
0.54750000 0.09500000 0.54750000 1
0.55000000 0.10000000 0.55000000 1
0.55250000 0.10500000 0.55250000 1
0.55500000 0.11000000 0.55500000 1
0.55750000 0.11500000 0.55750000 1
0.56000000 0.12000000 0.56000000 1
0.56250000 0.12500000 0.56250000 1
0.56500000 0.13000000 0.56500000 1
0.56750000 0.13500000 0.56750000 1
0.57000000 0.14000000 0.57000000 1
0.57250000 0.14500000 0.57250000 1
0.57500000 0.15000000 0.57500000 1
0.57750000 0.15500000 0.57750000 1
0.58000000 0.16000000 0.58000000 1
0.58250000 0.16500000 0.58250000 1
0.58500000 0.17000000 0.58500000 1
0.58750000 0.17500000 0.58750000 1
0.59000000 0.18000000 0.59000000 1
0.59250000 0.18500000 0.59250000 1
0.59500000 0.19000000 0.59500000 1
0.59750000 0.19500000 0.59750000 1
0.60000000 0.20000000 0.60000000 1
0.60250000 0.20500000 0.60250000 1
0.60500000 0.21000000 0.60500000 1
0.60750000 0.21500000 0.60750000 1
0.61000000 0.22000000 0.61000000 1
0.61250000 0.22500000 0.61250000 1
0.61500000 0.23000000 0.61500000 1
0.61750000 0.23500000 0.61750000 1
0.62000000 0.24000000 0.62000000 1
0.62250000 0.24500000 0.62250000 1
0.62500000 0.25000000 0.62500000 1
0.37500000 0.37500000 0.75000000 1
0.36750000 0.36750000 0.73500000 1
0.36000000 0.36000000 0.72000000 1
0.35250000 0.35250000 0.70500000 1
0.34500000 0.34500000 0.69000000 1
0.33750000 0.33750000 0.67500000 1
0.33000000 0.33000000 0.66000000 1
0.32250000 0.32250000 0.64500000 1
0.31500000 0.31500000 0.63000000 1
0.30750000 0.30750000 0.61500000 1
0.30000000 0.30000000 0.60000000 1
0.29250000 0.29250000 0.58500000 1
0.28500000 0.28500000 0.57000000 1
0.27750000 0.27750000 0.55500000 1
0.27000000 0.27000000 0.54000000 1
0.26250000 0.26250000 0.52500000 1
0.25500000 0.25500000 0.51000000 1
0.24750000 0.24750000 0.49500000 1
0.24000000 0.24000000 0.48000000 1
0.23250000 0.23250000 0.46500000 1
0.22500000 0.22500000 0.45000000 1
0.21750000 0.21750000 0.43500000 1
0.21000000 0.21000000 0.42000000 1
0.20250000 0.20250000 0.40500000 1
0.19500000 0.19500000 0.39000000 1
0.18750000 0.18750000 0.37500000 1
0.18000000 0.18000000 0.36000000 1
0.17250000 0.17250000 0.34500000 1
0.16500000 0.16500000 0.33000000 1
0.15750000 0.15750000 0.31500000 1
0.15000000 0.15000000 0.30000000 1
0.14250000 0.14250000 0.28500000 1
0.13500000 0.13500000 0.27000000 1
0.12750000 0.12750000 0.25500000 1
0.12000000 0.12000000 0.24000000 1
0.11250000 0.11250000 0.22500000 1
0.10500000 0.10500000 0.21000000 1
0.09750000 0.09750000 0.19500000 1
0.09000000 0.09000000 0.18000000 1
0.08250000 0.08250000 0.16500000 1
0.07500000 0.07500000 0.15000000 1
0.06750000 0.06750000 0.13500000 1
0.06000000 0.06000000 0.12000000 1
0.05250000 0.05250000 0.10500000 1
0.04500000 0.04500000 0.09000000 1
0.03750000 0.03750000 0.07500000 1
0.03000000 0.03000000 0.06000000 1
0.02250000 0.02250000 0.04500000 1
0.01500000 0.01500000 0.03000000 1
0.00750000 0.00750000 0.01500000 1
0.00000000 0.00000000 0.00000000 1
0.00000000 0.00000000 0.00000000 1
0.00500000 0.00500000 0.00500000 1
0.01000000 0.01000000 0.01000000 1
0.01500000 0.01500000 0.01500000 1
0.02000000 0.02000000 0.02000000 1
0.02500000 0.02500000 0.02500000 1
0.03000000 0.03000000 0.03000000 1
0.03500000 0.03500000 0.03500000 1
0.04000000 0.04000000 0.04000000 1
0.04500000 0.04500000 0.04500000 1
0.05000000 0.05000000 0.05000000 1
0.05500000 0.05500000 0.05500000 1
0.06000000 0.06000000 0.06000000 1
0.06500000 0.06500000 0.06500000 1
0.07000000 0.07000000 0.07000000 1
0.07500000 0.07500000 0.07500000 1
0.08000000 0.08000000 0.08000000 1
0.08500000 0.08500000 0.08500000 1
0.09000000 0.09000000 0.09000000 1
0.09500000 0.09500000 0.09500000 1
0.10000000 0.10000000 0.10000000 1
0.10500000 0.10500000 0.10500000 1
0.11000000 0.11000000 0.11000000 1
0.11500000 0.11500000 0.11500000 1
0.12000000 0.12000000 0.12000000 1
0.12500000 0.12500000 0.12500000 1
0.13000000 0.13000000 0.13000000 1
0.13500000 0.13500000 0.13500000 1
0.14000000 0.14000000 0.14000000 1
0.14500000 0.14500000 0.14500000 1
0.15000000 0.15000000 0.15000000 1
0.15500000 0.15500000 0.15500000 1
0.16000000 0.16000000 0.16000000 1
0.16500000 0.16500000 0.16500000 1
0.17000000 0.17000000 0.17000000 1
0.17500000 0.17500000 0.17500000 1
0.18000000 0.18000000 0.18000000 1
0.18500000 0.18500000 0.18500000 1
0.19000000 0.19000000 0.19000000 1
0.19500000 0.19500000 0.19500000 1
0.20000000 0.20000000 0.20000000 1
0.20500000 0.20500000 0.20500000 1
0.21000000 0.21000000 0.21000000 1
0.21500000 0.21500000 0.21500000 1
0.22000000 0.22000000 0.22000000 1
0.22500000 0.22500000 0.22500000 1
0.23000000 0.23000000 0.23000000 1
0.23500000 0.23500000 0.23500000 1
0.24000000 0.24000000 0.24000000 1
0.24500000 0.24500000 0.24500000 1
0.25000000 0.25000000 0.25000000 1
0.25500000 0.25500000 0.25500000 1
0.26000000 0.26000000 0.26000000 1
0.26500000 0.26500000 0.26500000 1
0.27000000 0.27000000 0.27000000 1
0.27500000 0.27500000 0.27500000 1
0.28000000 0.28000000 0.28000000 1
0.28500000 0.28500000 0.28500000 1
0.29000000 0.29000000 0.29000000 1
0.29500000 0.29500000 0.29500000 1
0.30000000 0.30000000 0.30000000 1
0.30500000 0.30500000 0.30500000 1
0.31000000 0.31000000 0.31000000 1
0.31500000 0.31500000 0.31500000 1
0.32000000 0.32000000 0.32000000 1
0.32500000 0.32500000 0.32500000 1
0.33000000 0.33000000 0.33000000 1
0.33500000 0.33500000 0.33500000 1
0.34000000 0.34000000 0.34000000 1
0.34500000 0.34500000 0.34500000 1
0.35000000 0.35000000 0.35000000 1
0.35500000 0.35500000 0.35500000 1
0.36000000 0.36000000 0.36000000 1
0.36500000 0.36500000 0.36500000 1
0.37000000 0.37000000 0.37000000 1
0.37500000 0.37500000 0.37500000 1
0.38000000 0.38000000 0.38000000 1
0.38500000 0.38500000 0.38500000 1
0.39000000 0.39000000 0.39000000 1
0.39500000 0.39500000 0.39500000 1
0.40000000 0.40000000 0.40000000 1
0.40500000 0.40500000 0.40500000 1
0.41000000 0.41000000 0.41000000 1
0.41500000 0.41500000 0.41500000 1
0.42000000 0.42000000 0.42000000 1
0.42500000 0.42500000 0.42500000 1
0.43000000 0.43000000 0.43000000 1
0.43500000 0.43500000 0.43500000 1
0.44000000 0.44000000 0.44000000 1
0.44500000 0.44500000 0.44500000 1
0.45000000 0.45000000 0.45000000 1
0.45500000 0.45500000 0.45500000 1
0.46000000 0.46000000 0.46000000 1
0.46500000 0.46500000 0.46500000 1
0.47000000 0.47000000 0.47000000 1
0.47500000 0.47500000 0.47500000 1
0.48000000 0.48000000 0.48000000 1
0.48500000 0.48500000 0.48500000 1
0.49000000 0.49000000 0.49000000 1
0.49500000 0.49500000 0.49500000 1
0.50000000 0.50000000 0.50000000 1
