      SYSTEM = AlN
      GGA = PS
      PREC = Accurate
    IBRION = -1
    NELMIN = 5
     ENCUT = 500
     EDIFF = 1.000000e-08
    ISMEAR = 0
     SIGMA = 0.05
     IALGO = 38
     LREAL = .FALSE.
   ADDGRID = .TRUE.
     LWAVE = .FALSE.
    LCHARG = .FALSE.
     NCORE = 8
     ADDGRID = .TRUE.
     LSCALAPACK = .FALSE.
