Generated by cif2cell 2.0.0.  :  Failed to get author information, No journal information.
 1.0
  4.969496960000000   0.000000000000000   0.000000000000000
  2.484748480000000   4.303710611389540   0.000000000000000
  2.484748480000000   1.434570203796514   4.057577276770728
  Rb  Br
   1   1
Cartesian
  0.000000000000000   0.000000000000000   0.000000000000000
  4.969496960000001   2.869140407593027   2.028788638385364