&input
zasr='simple', fildyn='mose2.dyn', flfrc='espresso.fc', la2F=.false.
/
