RbBr primitive cell
  7.0221     
    0.0 0.5 0.5
    0.5 0.0 0.5
    0.5 0.5 0.0
  Rb Br
  1 1
Direct
  0.000000 0.000000 0.000000
  0.500000 0.500000 0.500000
