      SYSTEM = Ge
      PREC = Accurate
       GGA = PS
    IBRION = -1
    NELMIN = 5
     ENCUT = 550
     EDIFF = 1.000000e-08
    ISMEAR = 0
     SIGMA = 0.15
     IALGO = 38
     LREAL = .FALSE.
   ADDGRID = .TRUE.
     LWAVE = .FALSE.
    LCHARG = .FALSE.
      NPAR = 8
