k-points along high symmetry lines
 101    ! 100 intersections 
Line-mode
reciprocal
  0    0    0    G
  0.5  0.5  1.0  X
