Generated by cif2cell 2.0.0.  :  Failed to get author information, No journal information.
 7.0221
  0.0 0.5 0.5
  0.5 0.0 0.5
  0.5 0.5 0.0
  Rb  Br
   1   1
Direct
  0.0 0.0 0.0
  0.5 0.5 0.5