KPT-Resolved Value to Generate K-Mesh: 0.020
0
Gamma
  10  10  10
0.0  0.0  0.0
