band path
101
Line-mode
rec

     0.00000000     0.00000000     0.00000000 G
     0.50000000     0.50000000     0.00000000 X

     0.00000000     0.00000000     0.00000000 G
     0.37500000     0.37500000     0.75000000 K
     
     0.37500000     0.37500000     0.75000000 K
     0.50000000     0.50000000     1.00000000 X

     0.00000000     0.00000000     0.00000000 G
     0.50000000     0.50000000     0.50000000 L
