Ge primitive                            
   5.70200000000000     
    -0.0000000000000000    0.4999919882636088    0.4999919882636088
     0.4999919882636088    0.0000000000000000    0.4999919882636088
     0.4999919882636088    0.4999919882636088    0.0000000000000000
   Ge
     2
Direct
  0.0000000000000000  0.0000000000000000 -0.0000000000000000
  0.2500000000000000  0.2500000000000000  0.2500000000000000
 
  0.00000000E+00  0.00000000E+00  0.00000000E+00
  0.00000000E+00  0.00000000E+00  0.00000000E+00
