  &control
    calculation     = 'scf'
    prefix          = 'MoSe2'
    restart_mode    = 'from_scratch'
    pseudo_dir      = '../../pp/'
    outdir          = './'
    tprnfor         = .true.
    tstress         = .true.
/
 &system
    ibrav           = 0
    nat             = 147
    ntyp            = 2
    ecutwfc         = 80
    ecutrho         = 800
    occupations     = 'fixed'
 /
 &electrons
    diagonalization = 'david'
    mixing_beta     = 0.7
    conv_thr        = 1.0d-12
 /
ATOMIC_SPECIES
  Mo 95.95  Mo.pbesol-spn-kjpaw_psl.1.0.0.UPF
  Se 78.971 Se.pbesol-dn-kjpaw_psl.1.0.0.UPF
ATOMIC_POSITIONS crystal
Se   0.0949857998107792   0.0471144567501299         0.3834453434
Mo   0.0476190476142857   0.0952380952428571                  0.5
Se   0.0952380952428571   0.0476190476142857         0.6165546566
Se         0.2380952381   0.0476190476142857         0.3834453434
Mo    0.190476190471429   0.0952380952428571                  0.5
Se    0.238347533532078   0.0481236384784415         0.6165546566
Se    0.380952380957143   0.0476190476142857         0.3834453434
Mo    0.333333333328571   0.0952380952428571                  0.5
Se    0.380952380957143   0.0476190476142857         0.6165546566
Se    0.523809523814286   0.0476190476142857         0.3834453434
Mo    0.476190476185714   0.0952380952428571                  0.5
Se    0.523809523814286   0.0476190476142857         0.6165546566
Se    0.666666666671429   0.0476190476142857         0.3834453434
Mo    0.619047619042857   0.0952380952428571                  0.5
Se    0.666666666671429   0.0476190476142857         0.6165546566
Se    0.809523809528572   0.0476190476142857         0.3834453434
Mo         0.7619047619   0.0952380952428571                  0.5
Se    0.809523809528572   0.0476190476142857         0.6165546566
Se    0.952380952385714   0.0476190476142857         0.3834453434
Mo    0.904761904757143   0.0952380952428571                  0.5
Se    0.952380952385714   0.0476190476142857         0.6165546566
Se   0.0952380952428571    0.190476190471429         0.3834453434
Mo   0.0476190476142857         0.2380952381                  0.5
Se   0.0952380952428571    0.190476190471429         0.6165546566
Se         0.2380952381    0.190476190471429         0.3834453434
Mo    0.190476190471429         0.2380952381                  0.5
Se         0.2380952381    0.190476190471429         0.6165546566
Se    0.380952380957143    0.190476190471429         0.3834453434
Mo    0.333333333328571         0.2380952381                  0.5
Se    0.380952380957143    0.190476190471429         0.6165546566
Se    0.523809523814286    0.190476190471429         0.3834453434
Mo    0.476190476185714         0.2380952381                  0.5
Se    0.523809523814286    0.190476190471429         0.6165546566
Se    0.666666666671429    0.190476190471429         0.3834453434
Mo    0.619047619042857         0.2380952381                  0.5
Se    0.666666666671429    0.190476190471429         0.6165546566
Se    0.809523809528572    0.190476190471429         0.3834453434
Mo         0.7619047619         0.2380952381                  0.5
Se    0.809523809528572    0.190476190471429         0.6165546566
Se    0.952380952385714    0.190476190471429         0.3834453434
Mo    0.904761904757143         0.2380952381                  0.5
Se    0.952380952385714    0.190476190471429         0.6165546566
Se   0.0952380952428571    0.333333333328571         0.3834453434
Mo   0.0476190476142857    0.380952380957143                  0.5
Se   0.0952380952428571    0.333333333328571         0.6165546566
Se         0.2380952381    0.333333333328571         0.3834453434
Mo    0.190476190471429    0.380952380957143                  0.5
Se         0.2380952381    0.333333333328571         0.6165546566
Se    0.380952380957143    0.333333333328571         0.3834453434
Mo    0.333333333328571    0.380952380957143                  0.5
Se    0.380952380957143    0.333333333328571         0.6165546566
Se    0.523809523814286    0.333333333328571         0.3834453434
Mo    0.476190476185714    0.380952380957143                  0.5
Se    0.523809523814286    0.333333333328571         0.6165546566
Se    0.666666666671429    0.333333333328571         0.3834453434
Mo    0.619047619042857    0.380952380957143                  0.5
Se    0.666666666671429    0.333333333328571         0.6165546566
Se    0.809523809528572    0.333333333328571         0.3834453434
Mo         0.7619047619    0.380952380957143                  0.5
Se    0.809523809528572    0.333333333328571         0.6165546566
Se    0.952380952385714    0.333333333328571         0.3834453434
Mo    0.904761904757143    0.380952380957143                  0.5
Se    0.952380952385714    0.333333333328571         0.6165546566
Se   0.0952380952428571    0.476190476185714         0.3834453434
Mo   0.0476190476142857    0.523809523814286                  0.5
Se   0.0952380952428571    0.476190476185714         0.6165546566
Se         0.2380952381    0.476190476185714         0.3834453434
Mo    0.190476190471429    0.523809523814286                  0.5
Se         0.2380952381    0.476190476185714         0.6165546566
Se    0.380952380957143    0.476190476185714         0.3834453434
Mo    0.333333333328571    0.523809523814286                  0.5
Se    0.380952380957143    0.476190476185714         0.6165546566
Se    0.523809523814286    0.476190476185714         0.3834453434
Mo    0.476190476185714    0.523809523814286                  0.5
Se    0.523809523814286    0.476190476185714         0.6165546566
Se    0.666666666671429    0.476190476185714         0.3834453434
Mo    0.619047619042857    0.523809523814286                  0.5
Se    0.666666666671429    0.476190476185714         0.6165546566
Se    0.809523809528572    0.476190476185714         0.3834453434
Mo         0.7619047619    0.523809523814286                  0.5
Se    0.809523809528572    0.476190476185714         0.6165546566
Se    0.952380952385714    0.476190476185714         0.3834453434
Mo    0.904761904757143    0.523809523814286                  0.5
Se    0.952380952385714    0.476190476185714         0.6165546566
Se   0.0952380952428571    0.619047619042857         0.3834453434
Mo   0.0476190476142857    0.666666666671429                  0.5
Se   0.0952380952428571    0.619047619042857         0.6165546566
Se         0.2380952381    0.619047619042857         0.3834453434
Mo    0.190476190471429    0.666666666671429                  0.5
Se         0.2380952381    0.619047619042857         0.6165546566
Se    0.380952380957143    0.619047619042857         0.3834453434
Mo    0.333333333328571    0.666666666671429                  0.5
Se    0.380952380957143    0.619047619042857         0.6165546566
Se    0.523809523814286    0.619047619042857         0.3834453434
Mo    0.476190476185714    0.666666666671429                  0.5
Se    0.523809523814286    0.619047619042857         0.6165546566
Se    0.666666666671429    0.619047619042857         0.3834453434
Mo    0.619047619042857    0.666666666671429                  0.5
Se    0.666666666671429    0.619047619042857         0.6165546566
Se    0.809523809528572    0.619047619042857         0.3834453434
Mo         0.7619047619    0.666666666671429                  0.5
Se    0.809523809528572    0.619047619042857         0.6165546566
Se    0.952380952385714    0.619047619042857         0.3834453434
Mo    0.904761904757143    0.666666666671429                  0.5
Se    0.952380952385714    0.619047619042857         0.6165546566
Se   0.0952380952428571         0.7619047619         0.3834453434
Mo   0.0476190476142857    0.809523809528572                  0.5
Se   0.0952380952428571         0.7619047619         0.6165546566
Se         0.2380952381         0.7619047619         0.3834453434
Mo    0.190476190471429    0.809523809528572                  0.5
Se         0.2380952381         0.7619047619         0.6165546566
Se    0.380952380957143         0.7619047619         0.3834453434
Mo    0.333333333328571    0.809523809528572                  0.5
Se    0.380952380957143         0.7619047619         0.6165546566
Se    0.523809523814286         0.7619047619         0.3834453434
Mo    0.476190476185714    0.809523809528572                  0.5
Se    0.523809523814286         0.7619047619         0.6165546566
Se    0.666666666671429         0.7619047619         0.3834453434
Mo    0.619047619042857    0.809523809528572                  0.5
Se    0.666666666671429         0.7619047619         0.6165546566
Se    0.809523809528572         0.7619047619         0.3834453434
Mo         0.7619047619    0.809523809528572                  0.5
Se    0.809523809528572         0.7619047619         0.6165546566
Se    0.952380952385714         0.7619047619         0.3834453434
Mo    0.904761904757143    0.809523809528572                  0.5
Se    0.952380952385714         0.7619047619         0.6165546566
Se   0.0952380952428571    0.904761904757143         0.3834453434
Mo   0.0476190476142857    0.952380952385714                  0.5
Se   0.0952380952428571    0.904761904757143         0.6165546566
Se         0.2380952381    0.904761904757143         0.3834453434
Mo    0.190476190471429    0.952380952385714                  0.5
Se         0.2380952381    0.904761904757143         0.6165546566
Se    0.380952380957143    0.904761904757143         0.3834453434
Mo    0.333333333328571    0.952380952385714                  0.5
Se    0.380952380957143    0.904761904757143         0.6165546566
Se    0.523809523814286    0.904761904757143         0.3834453434
Mo    0.476190476185714    0.952380952385714                  0.5
Se    0.523809523814286    0.904761904757143         0.6165546566
Se    0.666666666671429    0.904761904757143         0.3834453434
Mo    0.619047619042857    0.952380952385714                  0.5
Se    0.666666666671429    0.904761904757143         0.6165546566
Se    0.809523809528572    0.904761904757143         0.3834453434
Mo         0.7619047619    0.952380952385714                  0.5
Se    0.809523809528572    0.904761904757143         0.6165546566
Se    0.952380952385714    0.904761904757143         0.3834453434
Mo    0.904761904757143    0.952380952385714                  0.5
Se    0.952380952385714    0.904761904757143         0.6165546566
K_POINTS gamma
CELL_PARAMETERS angstrom
     22.883897042234                    0                    0
    -11.441948521117     19.8180361761622                    0
                   0                    0     14.2766463923231
