  &control
    calculation     = 'scf'
    prefix          = 'MoSe2'
    restart_mode    = 'from_scratch'
    pseudo_dir      = '../pp/'
    outdir          = './'
    tprnfor         = .true.
    tstress         = .true.
/
 &system
    ibrav           = 4
    celldm(1)       = 6.17775686750953
    celldm(3)       = 4.367111273128913
    nat             = 3
    ntyp            = 2
    ecutwfc         = 110
    ecutrho         = 800
    occupations     = 'fixed'
 /
 &electrons
    diagonalization = 'david'
    mixing_beta     = 0.7
    conv_thr        = 1.0d-12
 /
ATOMIC_SPECIES
  Mo 95.95  Mo.pbesol-spn-kjpaw_psl.1.0.0.UPF
  Se 78.971 Se.pbesol-dn-kjpaw_psl.1.0.0.UPF
ATOMIC_POSITIONS crystal 
Se            0.6666666667        0.3333333333        0.3834453434
Mo            0.3333333333        0.6666666667        0.5000000000
Se            0.6666666667        0.3333333333        0.6165546566
K_POINTS automatic
12 12 1 0 0 0 
