 generated by phonopy                   
   1.0000000000000000     
     3.2698656720895376    0.0000000000000000    0.0000000000000000
    -1.6349328360447688    2.8317867389922164    0.0000000000000000
     0.0000000000000000    0.0000000000000000   21.3302968714934345
   Mo   Se
     1     2
Direct
  0.3333333333333357  0.6666666666666643  0.5000000482079230
 -0.0000000000000000 -0.0000000000000000  0.5780665542236540
 -0.0000000000000000 -0.0000000000000000  0.4219334457763460

  0.00000000E+00  0.00000000E+00  0.00000000E+00
  0.00000000E+00  0.00000000E+00  0.00000000E+00
  0.00000000E+00  0.00000000E+00  0.00000000E+00
