--
&inputph
tr2_ph=1.0d-15,
prefix='RbBr',
outdir='./tmp',
fildyn='RbBr.dyn',
fildvscf='dvscf'
ldisp=.true.,
nq1=6, nq2=6, nq3=6
/
