 &input
   fildyn  =  'RbBr.dyn'
   zasr    =  'crystal', 
   flfrc   =  'RbBr.fc'
 /
