 &control
    calculation     = 'scf'
    prefix          = 'ge'
    pseudo_dir      = '/scratch1/fanchem/Ge/pp'
    outdir          = './'
    wf_collect      = .true.
  etot_conv_thr=1.0D-7
  forc_conv_thr=1.0D-5
  tprnfor = .true.
  tstress = .true.
  verbosity = 'high'
/
 &system
    ibrav           = 0
    nat=250,
    ntyp            = 1
    ecutwfc         = 66
    occupations     = 'smearing'
    smearing        = 'gauss'
    degauss         = 0.02
 /
 &electrons
    diagonalization = 'david'
    mixing_beta     = 0.7
    conv_thr        = 1.0d-16
 /
&IONS
/
&CELL
press_conv_thr=0.1
/

ATOMIC_SPECIES
  Ge   172.6  Ge.pbesol-n-kjpaw_psl.1.0.0.UPF



ATOMIC_POSITIONS crystal
Ge 0.000351688404994064 -0.000351688404994064 -0.000351688404994064
Ge   0.0496483115950059   0.0503516884049941   0.0503516884049941
Ge                  0.2                    0                    0
Ge                 0.25                 0.05                 0.05
Ge                  0.4                    0                    0
Ge                 0.45                 0.05                 0.05
Ge                  0.6                    0                    0
Ge                 0.65                 0.05                 0.05
Ge                  0.8                    0                    0
Ge                 0.85                 0.05                 0.05
Ge                    0                  0.2                    0
Ge                 0.05                 0.25                 0.05
Ge                  0.2                  0.2                    0
Ge                 0.25                 0.25                 0.05
Ge                  0.4                  0.2                    0
Ge                 0.45                 0.25                 0.05
Ge                  0.6                  0.2                    0
Ge                 0.65                 0.25                 0.05
Ge                  0.8                  0.2                    0
Ge                 0.85                 0.25                 0.05
Ge                    0                  0.4                    0
Ge                 0.05                 0.45                 0.05
Ge                  0.2                  0.4                    0
Ge                 0.25                 0.45                 0.05
Ge                  0.4                  0.4                    0
Ge                 0.45                 0.45                 0.05
Ge                  0.6                  0.4                    0
Ge                 0.65                 0.45                 0.05
Ge                  0.8                  0.4                    0
Ge                 0.85                 0.45                 0.05
Ge                    0                  0.6                    0
Ge                 0.05                 0.65                 0.05
Ge                  0.2                  0.6                    0
Ge                 0.25                 0.65                 0.05
Ge                  0.4                  0.6                    0
Ge                 0.45                 0.65                 0.05
Ge                  0.6                  0.6                    0
Ge                 0.65                 0.65                 0.05
Ge                  0.8                  0.6                    0
Ge                 0.85                 0.65                 0.05
Ge                    0                  0.8                    0
Ge                 0.05                 0.85                 0.05
Ge                  0.2                  0.8                    0
Ge                 0.25                 0.85                 0.05
Ge                  0.4                  0.8                    0
Ge                 0.45                 0.85                 0.05
Ge                  0.6                  0.8                    0
Ge                 0.65                 0.85                 0.05
Ge                  0.8                  0.8                    0
Ge                 0.85                 0.85                 0.05
Ge                    0                    0                  0.2
Ge                 0.05                 0.05                 0.25
Ge                  0.2                    0                  0.2
Ge                 0.25                 0.05                 0.25
Ge                  0.4                    0                  0.2
Ge                 0.45                 0.05                 0.25
Ge                  0.6                    0                  0.2
Ge                 0.65                 0.05                 0.25
Ge                  0.8                    0                  0.2
Ge                 0.85                 0.05                 0.25
Ge                    0                  0.2                  0.2
Ge                 0.05                 0.25                 0.25
Ge                  0.2                  0.2                  0.2
Ge                 0.25                 0.25                 0.25
Ge                  0.4                  0.2                  0.2
Ge                 0.45                 0.25                 0.25
Ge                  0.6                  0.2                  0.2
Ge                 0.65                 0.25                 0.25
Ge                  0.8                  0.2                  0.2
Ge                 0.85                 0.25                 0.25
Ge                    0                  0.4                  0.2
Ge                 0.05                 0.45                 0.25
Ge                  0.2                  0.4                  0.2
Ge                 0.25                 0.45                 0.25
Ge                  0.4                  0.4                  0.2
Ge                 0.45                 0.45                 0.25
Ge                  0.6                  0.4                  0.2
Ge                 0.65                 0.45                 0.25
Ge                  0.8                  0.4                  0.2
Ge                 0.85                 0.45                 0.25
Ge                    0                  0.6                  0.2
Ge                 0.05                 0.65                 0.25
Ge                  0.2                  0.6                  0.2
Ge                 0.25                 0.65                 0.25
Ge                  0.4                  0.6                  0.2
Ge                 0.45                 0.65                 0.25
Ge                  0.6                  0.6                  0.2
Ge                 0.65                 0.65                 0.25
Ge                  0.8                  0.6                  0.2
Ge                 0.85                 0.65                 0.25
Ge                    0                  0.8                  0.2
Ge                 0.05                 0.85                 0.25
Ge                  0.2                  0.8                  0.2
Ge                 0.25                 0.85                 0.25
Ge                  0.4                  0.8                  0.2
Ge                 0.45                 0.85                 0.25
Ge                  0.6                  0.8                  0.2
Ge                 0.65                 0.85                 0.25
Ge                  0.8                  0.8                  0.2
Ge                 0.85                 0.85                 0.25
Ge                    0                    0                  0.4
Ge                 0.05                 0.05                 0.45
Ge                  0.2                    0                  0.4
Ge                 0.25                 0.05                 0.45
Ge                  0.4                    0                  0.4
Ge                 0.45                 0.05                 0.45
Ge                  0.6                    0                  0.4
Ge                 0.65                 0.05                 0.45
Ge                  0.8                    0                  0.4
Ge                 0.85                 0.05                 0.45
Ge                    0                  0.2                  0.4
Ge                 0.05                 0.25                 0.45
Ge                  0.2                  0.2                  0.4
Ge                 0.25                 0.25                 0.45
Ge                  0.4                  0.2                  0.4
Ge                 0.45                 0.25                 0.45
Ge                  0.6                  0.2                  0.4
Ge                 0.65                 0.25                 0.45
Ge                  0.8                  0.2                  0.4
Ge                 0.85                 0.25                 0.45
Ge                    0                  0.4                  0.4
Ge                 0.05                 0.45                 0.45
Ge                  0.2                  0.4                  0.4
Ge                 0.25                 0.45                 0.45
Ge                  0.4                  0.4                  0.4
Ge                 0.45                 0.45                 0.45
Ge                  0.6                  0.4                  0.4
Ge                 0.65                 0.45                 0.45
Ge                  0.8                  0.4                  0.4
Ge                 0.85                 0.45                 0.45
Ge                    0                  0.6                  0.4
Ge                 0.05                 0.65                 0.45
Ge                  0.2                  0.6                  0.4
Ge                 0.25                 0.65                 0.45
Ge                  0.4                  0.6                  0.4
Ge                 0.45                 0.65                 0.45
Ge                  0.6                  0.6                  0.4
Ge                 0.65                 0.65                 0.45
Ge                  0.8                  0.6                  0.4
Ge                 0.85                 0.65                 0.45
Ge                    0                  0.8                  0.4
Ge                 0.05                 0.85                 0.45
Ge                  0.2                  0.8                  0.4
Ge                 0.25                 0.85                 0.45
Ge                  0.4                  0.8                  0.4
Ge                 0.45                 0.85                 0.45
Ge                  0.6                  0.8                  0.4
Ge                 0.65                 0.85                 0.45
Ge                  0.8                  0.8                  0.4
Ge                 0.85                 0.85                 0.45
Ge                    0                    0                  0.6
Ge                 0.05                 0.05                 0.65
Ge                  0.2                    0                  0.6
Ge                 0.25                 0.05                 0.65
Ge                  0.4                    0                  0.6
Ge                 0.45                 0.05                 0.65
Ge                  0.6                    0                  0.6
Ge                 0.65                 0.05                 0.65
Ge                  0.8                    0                  0.6
Ge                 0.85                 0.05                 0.65
Ge                    0                  0.2                  0.6
Ge                 0.05                 0.25                 0.65
Ge                  0.2                  0.2                  0.6
Ge                 0.25                 0.25                 0.65
Ge                  0.4                  0.2                  0.6
Ge                 0.45                 0.25                 0.65
Ge                  0.6                  0.2                  0.6
Ge                 0.65                 0.25                 0.65
Ge                  0.8                  0.2                  0.6
Ge                 0.85                 0.25                 0.65
Ge                    0                  0.4                  0.6
Ge                 0.05                 0.45                 0.65
Ge                  0.2                  0.4                  0.6
Ge                 0.25                 0.45                 0.65
Ge                  0.4                  0.4                  0.6
Ge                 0.45                 0.45                 0.65
Ge                  0.6                  0.4                  0.6
Ge                 0.65                 0.45                 0.65
Ge                  0.8                  0.4                  0.6
Ge                 0.85                 0.45                 0.65
Ge                    0                  0.6                  0.6
Ge                 0.05                 0.65                 0.65
Ge                  0.2                  0.6                  0.6
Ge                 0.25                 0.65                 0.65
Ge                  0.4                  0.6                  0.6
Ge                 0.45                 0.65                 0.65
Ge                  0.6                  0.6                  0.6
Ge                 0.65                 0.65                 0.65
Ge                  0.8                  0.6                  0.6
Ge                 0.85                 0.65                 0.65
Ge                    0                  0.8                  0.6
Ge                 0.05                 0.85                 0.65
Ge                  0.2                  0.8                  0.6
Ge                 0.25                 0.85                 0.65
Ge                  0.4                  0.8                  0.6
Ge                 0.45                 0.85                 0.65
Ge                  0.6                  0.8                  0.6
Ge                 0.65                 0.85                 0.65
Ge                  0.8                  0.8                  0.6
Ge                 0.85                 0.85                 0.65
Ge                    0                    0                  0.8
Ge                 0.05                 0.05                 0.85
Ge                  0.2                    0                  0.8
Ge                 0.25                 0.05                 0.85
Ge                  0.4                    0                  0.8
Ge                 0.45                 0.05                 0.85
Ge                  0.6                    0                  0.8
Ge                 0.65                 0.05                 0.85
Ge                  0.8                    0                  0.8
Ge                 0.85                 0.05                 0.85
Ge                    0                  0.2                  0.8
Ge                 0.05                 0.25                 0.85
Ge                  0.2                  0.2                  0.8
Ge                 0.25                 0.25                 0.85
Ge                  0.4                  0.2                  0.8
Ge                 0.45                 0.25                 0.85
Ge                  0.6                  0.2                  0.8
Ge                 0.65                 0.25                 0.85
Ge                  0.8                  0.2                  0.8
Ge                 0.85                 0.25                 0.85
Ge                    0                  0.4                  0.8
Ge                 0.05                 0.45                 0.85
Ge                  0.2                  0.4                  0.8
Ge                 0.25                 0.45                 0.85
Ge                  0.4                  0.4                  0.8
Ge                 0.45                 0.45                 0.85
Ge                  0.6                  0.4                  0.8
Ge                 0.65                 0.45                 0.85
Ge                  0.8                  0.4                  0.8
Ge                 0.85                 0.45                 0.85
Ge                    0                  0.6                  0.8
Ge                 0.05                 0.65                 0.85
Ge                  0.2                  0.6                  0.8
Ge                 0.25                 0.65                 0.85
Ge                  0.4                  0.6                  0.8
Ge                 0.45                 0.65                 0.85
Ge                  0.6                  0.6                  0.8
Ge                 0.65                 0.65                 0.85
Ge                  0.8                  0.6                  0.8
Ge                 0.85                 0.65                 0.85
Ge                    0                  0.8                  0.8
Ge                 0.05                 0.85                 0.85
Ge                  0.2                  0.8                  0.8
Ge                 0.25                 0.85                 0.85
Ge                  0.4                  0.8                  0.8
Ge                 0.45                 0.85                 0.85
Ge                  0.6                  0.8                  0.8
Ge                 0.65                 0.85                 0.85
Ge                  0.8                  0.8                  0.8
Ge                 0.85                 0.85                 0.85

CELL_PARAMETERS angstrom
   -14.2171306446239                    0     14.2171306446239
                   0     14.2171306446239     14.2171306446239
   -14.2171306446239     14.2171306446239                    0

K_POINTS gamma
