Primitive Cell
  1.000000
    0.00000000000000    2.88143100000000    2.88143100000000
    2.88143100000000    0.00000000000000    2.88143100000000
    2.88143100000000    2.88143100000000    0.00000000000000
  Ge
   2
DIRECT
    0.0000000000000000    0.0000000000000000    0.0000000000000000    Ge1
    0.2500000000000000    0.2500000000000000    0.2500000000000000    Ge2
