&input
  zasr='simple',  fildyn='Ge.dyn', flfrc='espresso.ifc2'
 /
