      SYSTEM = MoSe2
      GGA = PS
      PREC = Accurate
    IBRION = -1
    NELMIN = 5
     ENCUT = 550
     EDIFF = 1.000000e-08
     EDIFFG = -1.0000e-07
     NELM = 120  
    ISMEAR = 0
     SIGMA = 5.000000e-02
     IALGO = 38
     LREAL = .FALSE.
   ADDGRID = .TRUE.
     LWAVE = .FALSE.
    LCHARG = .FALSE.
      NPAR = 8
