---
 &inputph
  tr2_ph=1.0d-16,
  prefix='MoSe2',
  outdir='./',
  fildyn='MoSe2.dyn',
  fildvscf='dvscf'
  ldisp=.true.,
  nq1=6, nq2=6, nq3=1
 /
