 &input
  zasr='simple',  fildyn='MoSe2.dyn', flfrc='espresso.ifc2'
 /
