Automatic mesh
0 
Gamma
     31     31     31
    0.000 0.000 0.000 
