generated by phonopy                    
   1.0000000000000000     
    -0.0000000000000000    3.5110096676699474    3.5110096676699474
     3.5110096676699474    0.0000000000000000    3.5110096676699474
     3.5110096676699474    3.5110096676699474   -0.0000000000000000
   Rb   Br
     1     1
Direct
  0.0000000000000000  0.0000000000000000 -0.0000000000000000
  0.5000000000000000  0.5000000000000000  0.5000000000000000

  0.00000000E+00  0.00000000E+00  0.00000000E+00
  0.00000000E+00  0.00000000E+00  0.00000000E+00
