      SYSTEM = AlN
      GGA = PS
      PREC = Accurate
    IBRION = -1
    NELMIN = 5
     ENCUT = 600
     EDIFF = 1.000000e-08
    ISMEAR = 0
     SIGMA = 0.05
     IALGO = 38
     LREAL = .FALSE.
   ADDGRID = .TRUE.
     LWAVE = .TRUE.
    LCHARG = .TRUE.
     NCORE = 8
     ADDGRID = .TRUE.
     ICHARG = 11
     NBANDS = 24 
