Aln                                     
   1.0000000000000000     
     3.1130335240650688    0.0000000000000000    0.0000000000000000
    -1.5565167620325344    2.6959661146729439    0.0000000000000000
     0.0000000000000000    0.0000000000000000    4.9821498404296838
   Al   N 
     2     2
Direct
  0.3333333333333357  0.6666666666666643  0.0010014860003257
  0.6666666666666643  0.3333333333333357  0.5010014860003257
  0.3333333333333357  0.6666666666666643  0.6189985139996718
  0.6666666666666643  0.3333333333333357  0.1189985139996717

  0.00000000E+00  0.00000000E+00  0.00000000E+00
  0.00000000E+00  0.00000000E+00  0.00000000E+00
  0.00000000E+00  0.00000000E+00  0.00000000E+00
  0.00000000E+00  0.00000000E+00  0.00000000E+00
