Primitive Cell                          
   1.00000000000000     
    -0.0000000000000000    3.5087193969197767    3.5087193969197767
     3.5087193969197767    0.0000000000000000    3.5087193969197767
     3.5087193969197767    3.5087193969197767    0.0000000000000000
   Rb   Br
     1     1
Direct
  0.0000000000000000  0.0000000000000000  0.0000000000000000
  0.5000000000000000  0.5000000000000000  0.5000000000000000

