 &control
    calculation     = 'scf'
    prefix          = 'RbBr'
    restart_mode    = 'from_scratch'
    wf_collect      = .false.
    pseudo_dir      = '~/zxy/pp/'
    outdir          = './'
    tprnfor         = .true.
    tstress         = .true.
 /
 &system
    ibrav           = 0
    nat             = 128
    ntyp            = 2
    ecutwfc         = 80
    ecutrho         = 400
    occupations     = 'fixed'
 
 /
 &electrons
    diagonalization = 'david'
    mixing_beta     = 0.7
    conv_thr        = 1.0d-12
   
 /
ATOMIC_SPECIES
  Rb 85.468     Rb.pbe-spn-kjpaw_psl.1.0.0.UPF 
  Br 79.903     Br.pbe-n-kjpaw_psl.1.0.0.UPF

ATOMIC_POSITIONS crystal
Rb                    0                    0                    0
Br                0.125    0.124286473596668                0.125
Rb                 0.25                    0                    0
Br                0.375                0.125                0.125
Rb                  0.5                    0                    0
Br                0.625                0.125                0.125
Rb                 0.75                    0                    0
Br                0.875                0.125                0.125
Rb                    0                 0.25                    0
Br                0.125                0.375                0.125
Rb                 0.25                 0.25                    0
Br                0.375                0.375                0.125
Rb                  0.5                 0.25                    0
Br                0.625                0.375                0.125
Rb                 0.75                 0.25                    0
Br                0.875                0.375                0.125
Rb                    0                  0.5                    0
Br                0.125                0.625                0.125
Rb                 0.25                  0.5                    0
Br                0.375                0.625                0.125
Rb                  0.5                  0.5                    0
Br                0.625                0.625                0.125
Rb                 0.75                  0.5                    0
Br                0.875                0.625                0.125
Rb                    0                 0.75                    0
Br                0.125                0.875                0.125
Rb                 0.25                 0.75                    0
Br                0.375                0.875                0.125
Rb                  0.5                 0.75                    0
Br                0.625                0.875                0.125
Rb                 0.75                 0.75                    0
Br                0.875                0.875                0.125
Rb                    0                    0                 0.25
Br                0.125                0.125                0.375
Rb                 0.25                    0                 0.25
Br                0.375                0.125                0.375
Rb                  0.5                    0                 0.25
Br                0.625                0.125                0.375
Rb                 0.75                    0                 0.25
Br                0.875                0.125                0.375
Rb                    0                 0.25                 0.25
Br                0.125                0.375                0.375
Rb                 0.25                 0.25                 0.25
Br                0.375                0.375                0.375
Rb                  0.5                 0.25                 0.25
Br                0.625                0.375                0.375
Rb                 0.75                 0.25                 0.25
Br                0.875                0.375                0.375
Rb                    0                  0.5                 0.25
Br                0.125                0.625                0.375
Rb                 0.25                  0.5                 0.25
Br                0.375                0.625                0.375
Rb                  0.5                  0.5                 0.25
Br                0.625                0.625                0.375
Rb                 0.75                  0.5                 0.25
Br                0.875                0.625                0.375
Rb                    0                 0.75                 0.25
Br                0.125                0.875                0.375
Rb                 0.25                 0.75                 0.25
Br                0.375                0.875                0.375
Rb                  0.5                 0.75                 0.25
Br                0.625                0.875                0.375
Rb                 0.75                 0.75                 0.25
Br                0.875                0.875                0.375
Rb                    0                    0                  0.5
Br                0.125                0.125                0.625
Rb                 0.25                    0                  0.5
Br                0.375                0.125                0.625
Rb                  0.5                    0                  0.5
Br                0.625                0.125                0.625
Rb                 0.75                    0                  0.5
Br                0.875                0.125                0.625
Rb                    0                 0.25                  0.5
Br                0.125                0.375                0.625
Rb                 0.25                 0.25                  0.5
Br                0.375                0.375                0.625
Rb                  0.5                 0.25                  0.5
Br                0.625                0.375                0.625
Rb                 0.75                 0.25                  0.5
Br                0.875                0.375                0.625
Rb                    0                  0.5                  0.5
Br                0.125                0.625                0.625
Rb                 0.25                  0.5                  0.5
Br                0.375                0.625                0.625
Rb                  0.5                  0.5                  0.5
Br                0.625                0.625                0.625
Rb                 0.75                  0.5                  0.5
Br                0.875                0.625                0.625
Rb                    0                 0.75                  0.5
Br                0.125                0.875                0.625
Rb                 0.25                 0.75                  0.5
Br                0.375                0.875                0.625
Rb                  0.5                 0.75                  0.5
Br                0.625                0.875                0.625
Rb                 0.75                 0.75                  0.5
Br                0.875                0.875                0.625
Rb                    0                    0                 0.75
Br                0.125                0.125                0.875
Rb                 0.25                    0                 0.75
Br                0.375                0.125                0.875
Rb                  0.5                    0                 0.75
Br                0.625                0.125                0.875
Rb                 0.75                    0                 0.75
Br                0.875                0.125                0.875
Rb                    0                 0.25                 0.75
Br                0.125                0.375                0.875
Rb                 0.25                 0.25                 0.75
Br                0.375                0.375                0.875
Rb                  0.5                 0.25                 0.75
Br                0.625                0.375                0.875
Rb                 0.75                 0.25                 0.75
Br                0.875                0.375                0.875
Rb                    0                  0.5                 0.75
Br                0.125                0.625                0.875
Rb                 0.25                  0.5                 0.75
Br                0.375                0.625                0.875
Rb                  0.5                  0.5                 0.75
Br                0.625                0.625                0.875
Rb                 0.75                  0.5                 0.75
Br                0.875                0.625                0.875
Rb                    0                 0.75                 0.75
Br                0.125                0.875                0.875
Rb                 0.25                 0.75                 0.75
Br                0.375                0.875                0.875
Rb                  0.5                 0.75                 0.75
Br                0.625                0.875                0.875
Rb                 0.75                 0.75                 0.75
Br                0.875                0.875                0.875
K_POINTS automatic
2 2 2 0 0 0  
CELL_PARAMETERS angstrom
   -14.0148983321526                    0     14.0148983321526
                   0     14.0148983321526     14.0148983321526
   -14.0148983321526     14.0148983321526                    0
