&input
zasr='simple', fildyn='ge.dyn', flfrc='espresso.fc', la2F=.false.
/
