 &control
    calculation     = 'scf'
    prefix          = 'rbbr'
    pseudo_dir      = '/scratch1/fanchem/RbBr/pp'
    outdir          = './'
    wf_collect      = .true.
  etot_conv_thr=1.0D-7
  forc_conv_thr=1.0D-5
  tprnfor = .true.
  tstress = .true.
  verbosity = 'high'
/
 &system
    ibrav           = 0
    nat             = 250
    ntyp            = 2
    ecutwfc         = 66
    occupations     = 'fixed'
 /
 &electrons
    diagonalization = 'david'
    mixing_beta     = 0.7
    conv_thr        = 1.0d-16
 /
&IONS
/
&CELL
press_conv_thr=0.1
/

ATOMIC_SPECIES
  Rb   85.4678  Rb.pbe-spn-kjpaw_psl.1.0.0.UPF
  Br   79.9040  Br.pbe-n-kjpaw_psl.1.0.0.UPF

ATOMIC_POSITIONS crystal
Rb -0.000285113476488944 0.000285113476488944 -0.000285113476488944
Br                  0.1                  0.1                  0.1
Rb                  0.2                    0                    0
Br                  0.3                  0.1                  0.1
Rb                  0.4                    0                    0
Br                  0.5                  0.1                  0.1
Rb                  0.6                    0                    0
Br                  0.7                  0.1                  0.1
Rb                  0.8                    0                    0
Br                  0.9                  0.1                  0.1
Rb                    0                  0.2                    0
Br                  0.1                  0.3                  0.1
Rb    0.199714886523511    0.200285113476489 0.000285113476488944
Br                  0.3                  0.3                  0.1
Rb                  0.4                  0.2                    0
Br                  0.5                  0.3                  0.1
Rb                  0.6                  0.2                    0
Br                  0.7                  0.3                  0.1
Rb                  0.8                  0.2                    0
Br                  0.9                  0.3                  0.1
Rb                    0                  0.4                    0
Br                  0.1                  0.5                  0.1
Rb                  0.2                  0.4                    0
Br                  0.3                  0.5                  0.1
Rb                  0.4                  0.4                    0
Br                  0.5                  0.5                  0.1
Rb                  0.6                  0.4                    0
Br                  0.7                  0.5                  0.1
Rb                  0.8                  0.4                    0
Br                  0.9                  0.5                  0.1
Rb                    0                  0.6                    0
Br                  0.1                  0.7                  0.1
Rb                  0.2                  0.6                    0
Br                  0.3                  0.7                  0.1
Rb                  0.4                  0.6                    0
Br                  0.5                  0.7                  0.1
Rb                  0.6                  0.6                    0
Br                  0.7                  0.7                  0.1
Rb                  0.8                  0.6                    0
Br                  0.9                  0.7                  0.1
Rb                    0                  0.8                    0
Br                  0.1                  0.9                  0.1
Rb                  0.2                  0.8                    0
Br                  0.3                  0.9                  0.1
Rb                  0.4                  0.8                    0
Br                  0.5                  0.9                  0.1
Rb                  0.6                  0.8                    0
Br                  0.7                  0.9                  0.1
Rb                  0.8                  0.8                    0
Br                  0.9                  0.9                  0.1
Rb                    0                    0                  0.2
Br                  0.1                  0.1                  0.3
Rb                  0.2                    0                  0.2
Br                  0.3                  0.1                  0.3
Rb                  0.4                    0                  0.2
Br                  0.5                  0.1                  0.3
Rb                  0.6                    0                  0.2
Br                  0.7                  0.1                  0.3
Rb                  0.8                    0                  0.2
Br                  0.9                  0.1                  0.3
Rb                    0                  0.2                  0.2
Br                  0.1                  0.3                  0.3
Rb                  0.2                  0.2                  0.2
Br                  0.3                  0.3                  0.3
Rb                  0.4                  0.2                  0.2
Br                  0.5                  0.3                  0.3
Rb                  0.6                  0.2                  0.2
Br                  0.7                  0.3                  0.3
Rb                  0.8                  0.2                  0.2
Br                  0.9                  0.3                  0.3
Rb                    0                  0.4                  0.2
Br                  0.1                  0.5                  0.3
Rb                  0.2                  0.4                  0.2
Br                  0.3                  0.5                  0.3
Rb                  0.4                  0.4                  0.2
Br                  0.5                  0.5                  0.3
Rb                  0.6                  0.4                  0.2
Br                  0.7                  0.5                  0.3
Rb                  0.8                  0.4                  0.2
Br                  0.9                  0.5                  0.3
Rb                    0                  0.6                  0.2
Br                  0.1                  0.7                  0.3
Rb                  0.2                  0.6                  0.2
Br                  0.3                  0.7                  0.3
Rb                  0.4                  0.6                  0.2
Br                  0.5                  0.7                  0.3
Rb                  0.6                  0.6                  0.2
Br                  0.7                  0.7                  0.3
Rb                  0.8                  0.6                  0.2
Br                  0.9                  0.7                  0.3
Rb                    0                  0.8                  0.2
Br                  0.1                  0.9                  0.3
Rb                  0.2                  0.8                  0.2
Br                  0.3                  0.9                  0.3
Rb                  0.4                  0.8                  0.2
Br                  0.5                  0.9                  0.3
Rb                  0.6                  0.8                  0.2
Br                  0.7                  0.9                  0.3
Rb                  0.8                  0.8                  0.2
Br                  0.9                  0.9                  0.3
Rb                    0                    0                  0.4
Br                  0.1                  0.1                  0.5
Rb                  0.2                    0                  0.4
Br                  0.3                  0.1                  0.5
Rb                  0.4                    0                  0.4
Br                  0.5                  0.1                  0.5
Rb                  0.6                    0                  0.4
Br                  0.7                  0.1                  0.5
Rb                  0.8                    0                  0.4
Br                  0.9                  0.1                  0.5
Rb                    0                  0.2                  0.4
Br                  0.1                  0.3                  0.5
Rb                  0.2                  0.2                  0.4
Br                  0.3                  0.3                  0.5
Rb                  0.4                  0.2                  0.4
Br                  0.5                  0.3                  0.5
Rb                  0.6                  0.2                  0.4
Br                  0.7                  0.3                  0.5
Rb                  0.8                  0.2                  0.4
Br                  0.9                  0.3                  0.5
Rb                    0                  0.4                  0.4
Br                  0.1                  0.5                  0.5
Rb                  0.2                  0.4                  0.4
Br                  0.3                  0.5                  0.5
Rb                  0.4                  0.4                  0.4
Br                  0.5                  0.5                  0.5
Rb                  0.6                  0.4                  0.4
Br                  0.7                  0.5                  0.5
Rb                  0.8                  0.4                  0.4
Br                  0.9                  0.5                  0.5
Rb                    0                  0.6                  0.4
Br                  0.1                  0.7                  0.5
Rb                  0.2                  0.6                  0.4
Br                  0.3                  0.7                  0.5
Rb                  0.4                  0.6                  0.4
Br                  0.5                  0.7                  0.5
Rb                  0.6                  0.6                  0.4
Br                  0.7                  0.7                  0.5
Rb                  0.8                  0.6                  0.4
Br                  0.9                  0.7                  0.5
Rb                    0                  0.8                  0.4
Br                  0.1                  0.9                  0.5
Rb                  0.2                  0.8                  0.4
Br                  0.3                  0.9                  0.5
Rb                  0.4                  0.8                  0.4
Br                  0.5                  0.9                  0.5
Rb                  0.6                  0.8                  0.4
Br                  0.7                  0.9                  0.5
Rb                  0.8                  0.8                  0.4
Br                  0.9                  0.9                  0.5
Rb                    0                    0                  0.6
Br                  0.1                  0.1                  0.7
Rb                  0.2                    0                  0.6
Br                  0.3                  0.1                  0.7
Rb                  0.4                    0                  0.6
Br                  0.5                  0.1                  0.7
Rb                  0.6                    0                  0.6
Br                  0.7                  0.1                  0.7
Rb                  0.8                    0                  0.6
Br                  0.9                  0.1                  0.7
Rb                    0                  0.2                  0.6
Br                  0.1                  0.3                  0.7
Rb                  0.2                  0.2                  0.6
Br                  0.3                  0.3                  0.7
Rb                  0.4                  0.2                  0.6
Br                  0.5                  0.3                  0.7
Rb                  0.6                  0.2                  0.6
Br                  0.7                  0.3                  0.7
Rb                  0.8                  0.2                  0.6
Br                  0.9                  0.3                  0.7
Rb                    0                  0.4                  0.6
Br                  0.1                  0.5                  0.7
Rb                  0.2                  0.4                  0.6
Br                  0.3                  0.5                  0.7
Rb                  0.4                  0.4                  0.6
Br                  0.5                  0.5                  0.7
Rb                  0.6                  0.4                  0.6
Br                  0.7                  0.5                  0.7
Rb                  0.8                  0.4                  0.6
Br                  0.9                  0.5                  0.7
Rb                    0                  0.6                  0.6
Br                  0.1                  0.7                  0.7
Rb                  0.2                  0.6                  0.6
Br                  0.3                  0.7                  0.7
Rb                  0.4                  0.6                  0.6
Br                  0.5                  0.7                  0.7
Rb                  0.6                  0.6                  0.6
Br                  0.7                  0.7                  0.7
Rb                  0.8                  0.6                  0.6
Br                  0.9                  0.7                  0.7
Rb                    0                  0.8                  0.6
Br                  0.1                  0.9                  0.7
Rb                  0.2                  0.8                  0.6
Br                  0.3                  0.9                  0.7
Rb                  0.4                  0.8                  0.6
Br                  0.5                  0.9                  0.7
Rb                  0.6                  0.8                  0.6
Br                  0.7                  0.9                  0.7
Rb                  0.8                  0.8                  0.6
Br                  0.9                  0.9                  0.7
Rb                    0                    0                  0.8
Br                  0.1                  0.1                  0.9
Rb                  0.2                    0                  0.8
Br                  0.3                  0.1                  0.9
Rb                  0.4                    0                  0.8
Br                  0.5                  0.1                  0.9
Rb                  0.6                    0                  0.8
Br                  0.7                  0.1                  0.9
Rb                  0.8                    0                  0.8
Br                  0.9                  0.1                  0.9
Rb                    0                  0.2                  0.8
Br                  0.1                  0.3                  0.9
Rb                  0.2                  0.2                  0.8
Br                  0.3                  0.3                  0.9
Rb                  0.4                  0.2                  0.8
Br                  0.5                  0.3                  0.9
Rb                  0.6                  0.2                  0.8
Br                  0.7                  0.3                  0.9
Rb                  0.8                  0.2                  0.8
Br                  0.9                  0.3                  0.9
Rb                    0                  0.4                  0.8
Br                  0.1                  0.5                  0.9
Rb                  0.2                  0.4                  0.8
Br                  0.3                  0.5                  0.9
Rb                  0.4                  0.4                  0.8
Br                  0.5                  0.5                  0.9
Rb                  0.6                  0.4                  0.8
Br                  0.7                  0.5                  0.9
Rb                  0.8                  0.4                  0.8
Br                  0.9                  0.5                  0.9
Rb                    0                  0.6                  0.8
Br                  0.1                  0.7                  0.9
Rb                  0.2                  0.6                  0.8
Br                  0.3                  0.7                  0.9
Rb                  0.4                  0.6                  0.8
Br                  0.5                  0.7                  0.9
Rb                  0.6                  0.6                  0.8
Br                  0.7                  0.7                  0.9
Rb                  0.8                  0.6                  0.8
Br                  0.9                  0.7                  0.9
Rb                    0                  0.8                  0.8
Br                  0.1                  0.9                  0.9
Rb                  0.2                  0.8                  0.8
Br                  0.3                  0.9                  0.9
Rb                  0.4                  0.8                  0.8
Br                  0.5                  0.9                  0.9
Rb                  0.6                  0.8                  0.8
Br                  0.7                  0.9                  0.9
Rb                  0.8                  0.8                  0.8
Br                  0.9                  0.9                  0.9

CELL_PARAMETERS angstrom
   -17.5368771114328                    0     17.5368771114328
                   0     17.5368771114328     17.5368771114328
   -17.5368771114328     17.5368771114328                    0

K_POINTS gamma

