 Mo1 Se2
   1.000
    3.3269480000000000    0.0000000000000000    0.0000000000000000
   -1.6634740000000000    2.8812214850698306    0.0000000000000000
    0.0000000000000000    0.0000000000000000   40.0000000000000000
   Mo   Se
    1    2
Direct
    0.0000000000000000    0.0000000000000000    0.0000000000000000    Mo1
    0.3333333333333333    0.6666666666666667    0.0418153977500000    Se1
    0.3333333333333333    0.6666666666666667    0.9581846022500000    Se2
