band path
100
Line-mode
rec

     0.00000000     0.00000000     0.00000000 G
     0.50000000     0.00000000     0.00000000 M

     1.00000000     0.00000000     0.00000000 G
     0.00000000     0.50000000     0.00000000 M

     0.00000000     0.00000000     0.00000000 G
     0.00000000     0.00000000     0.50000000 A

