KPT-Resolved Value to Generate K-Mesh: 0.030
0
Gamma
  6    6    6
0.0  0.0  0.0
