pymatgen with grid density = 788 / number of atoms
0
Gamma
2 2 1
