Mo64 Se128
1.000
    26.1606189603827     0.0000000000000     0.0000000000000
   -13.0803094801914    22.6557605984162     0.0000000000000
     0.0000000000000     0.0000000000000    18.3452318200640
Mo Se 
64 128 
Direct
    0.00000000000000     0.00000000000000     0.50000000000000
    0.00000000000000     0.12500000000000     0.50000000000000
    0.00000000000000     0.25000000000000     0.50000000000000
    0.00000000000000     0.37500000000000     0.50000000000000
    0.00000000000000     0.50000000000000     0.50000000000000
    0.00000000000000     0.62500000000000     0.50000000000000
    0.00000000000000     0.75000000000000     0.50000000000000
    0.00000000000000     0.87500000000000     0.50000000000000
    0.12500000000000     0.00000000000000     0.50000000000000
    0.12500000000000     0.12500000000000     0.50000000000000
    0.12500000000000     0.25000000000000     0.50000000000000
    0.12500000000000     0.37500000000000     0.50000000000000
    0.12500000000000     0.50000000000000     0.50000000000000
    0.12500000000000     0.62500000000000     0.50000000000000
    0.12500000000000     0.75000000000000     0.50000000000000
    0.12500000000000     0.87500000000000     0.50000000000000
    0.25000000000000     0.00000000000000     0.50000000000000
    0.25000000000000     0.12500000000000     0.50000000000000
    0.25000000000000     0.25000000000000     0.50000000000000
    0.25000000000000     0.37500000000000     0.50000000000000
    0.25000000000000     0.50000000000000     0.50000000000000
    0.25000000000000     0.62500000000000     0.50000000000000
    0.25000000000000     0.75000000000000     0.50000000000000
    0.25000000000000     0.87500000000000     0.50000000000000
    0.37500000000000     0.00000000000000     0.50000000000000
    0.37500000000000     0.12500000000000     0.50000000000000
    0.37500000000000     0.25000000000000     0.50000000000000
    0.37500000000000     0.37500000000000     0.50000000000000
    0.37500000000000     0.50000000000000     0.50000000000000
    0.37500000000000     0.62500000000000     0.50000000000000
    0.37500000000000     0.75000000000000     0.50000000000000
    0.37500000000000     0.87500000000000     0.50000000000000
    0.50000000000000     0.00000000000000     0.50000000000000
    0.50000000000000     0.12500000000000     0.50000000000000
    0.50000000000000     0.25000000000000     0.50000000000000
    0.50000000000000     0.37500000000000     0.50000000000000
    0.50000000000000     0.50000000000000     0.50000000000000
    0.50000000000000     0.62500000000000     0.50000000000000
    0.50000000000000     0.75000000000000     0.50000000000000
    0.50000000000000     0.87500000000000     0.50000000000000
    0.62500000000000     0.00000000000000     0.50000000000000
    0.62500000000000     0.12500000000000     0.50000000000000
    0.62500000000000     0.25000000000000     0.50000000000000
    0.62500000000000     0.37500000000000     0.50000000000000
    0.62500000000000     0.50000000000000     0.50000000000000
    0.62500000000000     0.62500000000000     0.50000000000000
    0.62500000000000     0.75000000000000     0.50000000000000
    0.62500000000000     0.87500000000000     0.50000000000000
    0.75000000000000     0.00000000000000     0.50000000000000
    0.75000000000000     0.12500000000000     0.50000000000000
    0.75000000000000     0.25000000000000     0.50000000000000
    0.75000000000000     0.37500000000000     0.50000000000000
    0.75000000000000     0.50000000000000     0.50000000000000
    0.75000000000000     0.62500000000000     0.50000000000000
    0.75000000000000     0.75000000000000     0.50000000000000
    0.75000000000000     0.87500000000000     0.50000000000000
    0.87500000000000     0.00000000000000     0.50000000000000
    0.87500000000000     0.12500000000000     0.50000000000000
    0.87500000000000     0.25000000000000     0.50000000000000
    0.87500000000000     0.37500000000000     0.50000000000000
    0.87500000000000     0.50000000000000     0.50000000000000
    0.87500000000000     0.62500000000000     0.50000000000000
    0.87500000000000     0.75000000000000     0.50000000000000
    0.87500000000000     0.87500000000000     0.50000000000000
    0.04166666666667     0.08333333333333     0.59076650096830
    0.04166666666667     0.20833333333333     0.59076650096830
    0.04166666666667     0.33333333333333     0.59076650096830
    0.04166666666667     0.45833333333333     0.59076650096830
    0.04166666666667     0.58333333333333     0.59076650096830
    0.04166666666667     0.70833333333333     0.59076650096830
    0.04166666666667     0.83333333333333     0.59076650096830
    0.04166666666667     0.95833333333333     0.59076650096830
    0.16666666666667     0.08333333333333     0.59076650096830
    0.16666666666667     0.20833333333333     0.59076650096830
    0.16666666666667     0.33333333333333     0.59076650096830
    0.16666666666667     0.45833333333333     0.59076650096830
    0.16666666666667     0.58333333333333     0.59076650096830
    0.16666666666667     0.70833333333333     0.59076650096830
    0.16666666666667     0.83333333333333     0.59076650096830
    0.16666666666667     0.95833333333333     0.59076650096830
    0.29166666666667     0.08333333333333     0.59076650096830
    0.29166666666667     0.20833333333333     0.59076650096830
    0.29166666666667     0.33333333333333     0.59076650096830
    0.29166666666667     0.45833333333333     0.59076650096830
    0.29166666666667     0.58333333333333     0.59076650096830
    0.29166666666667     0.70833333333333     0.59076650096830
    0.29166666666667     0.83333333333333     0.59076650096830
    0.29166666666667     0.95833333333333     0.59076650096830
    0.41666666666667     0.08333333333333     0.59076650096830
    0.41666666666667     0.20833333333333     0.59076650096830
    0.41666666666667     0.33333333333333     0.59076650096830
    0.41666666666667     0.45833333333333     0.59076650096830
    0.41666666666667     0.58333333333333     0.59076650096830
    0.41666666666667     0.70833333333333     0.59076650096830
    0.41666666666667     0.83333333333333     0.59076650096830
    0.41666666666667     0.95833333333333     0.59076650096830
    0.54166666666667     0.08333333333333     0.59076650096830
    0.54166666666667     0.20833333333333     0.59076650096830
    0.54166666666667     0.33333333333333     0.59076650096830
    0.54166666666667     0.45833333333333     0.59076650096830
    0.54166666666667     0.58333333333333     0.59076650096830
    0.54166666666667     0.70833333333333     0.59076650096830
    0.54166666666667     0.83333333333333     0.59076650096830
    0.54166666666667     0.95833333333333     0.59076650096830
    0.66666666666667     0.08333333333333     0.59076650096830
    0.66666666666667     0.20833333333333     0.59076650096830
    0.66666666666667     0.33333333333333     0.59076650096830
    0.66666666666667     0.45833333333333     0.59076650096830
    0.66666666666667     0.58333333333333     0.59076650096830
    0.66666666666667     0.70833333333333     0.59076650096830
    0.66666666666667     0.83333333333333     0.59076650096830
    0.66666666666667     0.95833333333333     0.59076650096830
    0.79166666666667     0.08333333333333     0.59076650096830
    0.79166666666667     0.20833333333333     0.59076650096830
    0.79166666666667     0.33333333333333     0.59076650096830
    0.79166666666667     0.45833333333333     0.59076650096830
    0.79166666666667     0.58333333333333     0.59076650096830
    0.79166666666667     0.70833333333333     0.59076650096830
    0.79166666666667     0.83333333333333     0.59076650096830
    0.79166666666667     0.95833333333333     0.59076650096830
    0.91666666666667     0.08333333333333     0.59076650096830
    0.91666666666667     0.20833333333333     0.59076650096830
    0.91666666666667     0.33333333333333     0.59076650096830
    0.91666666666667     0.45833333333333     0.59076650096830
    0.91666666666667     0.58333333333333     0.59076650096830
    0.91666666666667     0.70833333333333     0.59076650096830
    0.91666666666667     0.83333333333333     0.59076650096830
    0.91666666666667     0.95833333333333     0.59076650096830
    0.04166666666667     0.08333333333333     0.40923349903170
    0.04166666666667     0.20833333333333     0.40923349903170
    0.04166666666667     0.33333333333333     0.40923349903170
    0.04166666666667     0.45833333333333     0.40923349903170
    0.04166666666667     0.58333333333333     0.40923349903170
    0.04166666666667     0.70833333333333     0.40923349903170
    0.04166666666667     0.83333333333333     0.40923349903170
    0.04166666666667     0.95833333333333     0.40923349903170
    0.16666666666667     0.08333333333333     0.40923349903170
    0.16666666666667     0.20833333333333     0.40923349903170
    0.16666666666667     0.33333333333333     0.40923349903170
    0.16666666666667     0.45833333333333     0.40923349903170
    0.16666666666667     0.58333333333333     0.40923349903170
    0.16666666666667     0.70833333333333     0.40923349903170
    0.16666666666667     0.83333333333333     0.40923349903170
    0.16666666666667     0.95833333333333     0.40923349903170
    0.29166666666667     0.08333333333333     0.40923349903170
    0.29166666666667     0.20833333333333     0.40923349903170
    0.29166666666667     0.33333333333333     0.40923349903170
    0.29166666666667     0.45833333333333     0.40923349903170
    0.29166666666667     0.58333333333333     0.40923349903170
    0.29166666666667     0.70833333333333     0.40923349903170
    0.29166666666667     0.83333333333333     0.40923349903170
    0.29166666666667     0.95833333333333     0.40923349903170
    0.41666666666667     0.08333333333333     0.40923349903170
    0.41666666666667     0.20833333333333     0.40923349903170
    0.41666666666667     0.33333333333333     0.40923349903170
    0.41666666666667     0.45833333333333     0.40923349903170
    0.41666666666667     0.58333333333333     0.40923349903170
    0.41666666666667     0.70833333333333     0.40923349903170
    0.41666666666667     0.83333333333333     0.40923349903170
    0.41666666666667     0.95833333333333     0.40923349903170
    0.54166666666667     0.08333333333333     0.40923349903170
    0.54166666666667     0.20833333333333     0.40923349903170
    0.54166666666667     0.33333333333333     0.40923349903170
    0.54166666666667     0.45833333333333     0.40923349903170
    0.54166666666667     0.58333333333333     0.40923349903170
    0.54166666666667     0.70833333333333     0.40923349903170
    0.54166666666667     0.83333333333333     0.40923349903170
    0.54166666666667     0.95833333333333     0.40923349903170
    0.66666666666667     0.08333333333333     0.40923349903170
    0.66666666666667     0.20833333333333     0.40923349903170
    0.66666666666667     0.33333333333333     0.40923349903170
    0.66666666666667     0.45833333333333     0.40923349903170
    0.66666666666667     0.58333333333333     0.40923349903170
    0.66666666666667     0.70833333333333     0.40923349903170
    0.66666666666667     0.83333333333333     0.40923349903170
    0.66666666666667     0.95833333333333     0.40923349903170
    0.79166666666667     0.08333333333333     0.40923349903170
    0.79166666666667     0.20833333333333     0.40923349903170
    0.79166666666667     0.33333333333333     0.40923349903170
    0.79166666666667     0.45833333333333     0.40923349903170
    0.79166666666667     0.58333333333333     0.40923349903170
    0.79166666666667     0.70833333333333     0.40923349903170
    0.79166666666667     0.83333333333333     0.40923349903170
    0.79166666666667     0.95833333333333     0.40923349903170
    0.91666666666667     0.08333333333333     0.40923349903170
    0.91666666666667     0.20833333333333     0.40923349903170
    0.91666666666667     0.33333333333333     0.40923349903170
    0.91666666666667     0.45833333333333     0.40923349903170
    0.91666666666667     0.58333333333333     0.40923349903170
    0.91666666666667     0.70833333333333     0.40923349903170
    0.91666666666667     0.83333333333333     0.40923349903170
    0.91666666666667     0.95833333333333     0.40923349903170
